LAMMPS (17 Apr 2024)
OMP_NUM_THREADS environment is not set. Defaulting to 1 thread. (src/comm.cpp:98)
  using 1 OpenMP thread(s) per MPI task
# 3d simulation

atom_style	bond

# Soft potential push-off

read_data	data.lammps
Reading data file ...
  orthogonal box = (0 0 0) to (20 20 20)
  1 by 1 by 1 MPI processor grid
  reading atoms ...
  24000 atoms
  scanning bonds ...
  1 = max bonds/atom
  orthogonal box = (0 0 0) to (20 20 20)
  1 by 1 by 1 MPI processor grid
  reading bonds ...
  21600 bonds
Finding 1-2 1-3 1-4 neighbors ...
  special bond factors lj:    0        0        0       
  special bond factors coul:  0        0        0       
     2 = max # of 1-2 neighbors
     2 = max # of 1-3 neighbors
     4 = max # of 1-4 neighbors
     6 = max # of special neighbors
  special bonds CPU = 0.007 seconds
  read_data CPU = 0.099 seconds

neighbor	2.0 bin
neigh_modify	delay 0 every 1

timestep        0.02
thermo		100
thermo_style    custom step time spcpu temp press pe ke enthalpy evdwl emol etotal

bond_style 	harmonic
bond_coeff	1 2.0 0.0

# relaxation
pair_style      dpd 1.0 1.0 20202
pair_coeff      1 1 25.0 4.5
pair_coeff      1 2 25.0 4.5
pair_coeff      2 2 25.0 4.5

special_bonds   lj 1.0 1.0 1.0
Finding 1-2 1-3 1-4 neighbors ...
  special bond factors lj:    1        1        1       
  special bond factors coul:  0        0        0       
     2 = max # of 1-2 neighbors
     2 = max # of 1-3 neighbors
     4 = max # of 1-4 neighbors
     6 = max # of special neighbors
  special bonds CPU = 0.012 seconds

velocity	all create 1.0 2349852 dist gaussian

fix             1 all nve/limit 0.1

comm_modify	mode single vel yes

dump nve_xyz all xyz 1000 eq.xyz
dump_modify nve_xyz sort id units yes

run		5000
Generated 0 of 1 mixed pair_coeff terms from geometric mixing rule
Neighbor list info ...
  update: every = 1 steps, delay = 0 steps, check = yes
  max neighbors/atom: 2000, page size: 100000
  master list distance cutoff = 3
  ghost atom cutoff = 3
  binsize = 1.5, bins = 14 14 14
  1 neighbor lists, perpetual/occasional/extra = 1 0 0
  (1) pair dpd, perpetual
      attributes: half, newton on
      pair build: half/bin/newton
      stencil: half/bin/3d
      bin: standard
WARNING: Inconsistent image flags (src/domain.cpp:1051)
Per MPI rank memory allocation (min/avg/max) = 33.85 | 33.85 | 33.85 Mbytes
   Step          Time          S/CPU           Temp          Press          PotEng         KinEng        Enthalpy        E_vdwl         E_mol          TotEng    
         0   0              0              1              25.276326      10.624039      1.4999375      20.549419      8.82404        1.7999991      12.123977    
       100   2              29.736948      1.2377546      20.766698      6.7499547      1.8565545      15.528742      4.7763914      1.9735633      8.6065092    
       200   4              28.690154      1.1072463      20.683755      6.3543846      1.6608002      14.90977       4.6233239      1.7310607      8.0151848    
       300   6              29.368494      1.0516229      20.60237       6.2391067      1.5773687      14.683932      4.5858582      1.6532486      7.8164754    
       400   8              27.825447      1.0299478      20.601151      6.2201378      1.5448573      14.632045      4.5893102      1.6308276      7.7649951    
       500   10             27.610297      1.0183877      20.587068      6.2194904      1.5275179      14.609364      4.5933813      1.6261091      7.7470083    
       600   12             28.334307      1.0096265      20.521127      6.1981774      1.5143767      14.55293       4.5802106      1.6179668      7.7125541    
       700   14             28.138019      1.0153879      20.579238      6.177385       1.5230184      14.56015       4.5669453      1.6104397      7.7004034    
       800   16             26.779761      1.0118763      20.487051      6.1809703      1.5177511      14.527738      4.5744471      1.6065232      7.6987214    
       900   18             27.742461      1.0079618      20.462136      6.1812128      1.5118797      14.513805      4.5728767      1.6083361      7.6930925    
      1000   20             27.541601      1.0143002      20.529052      6.1795918      1.5213869      14.543996      4.5792294      1.6003625      7.7009788    
      1100   22             30.65739       1.0215494      20.643641      6.1811533      1.5322602      14.594627      4.5781293      1.603024       7.7134135    
      1200   24             30.720312      1.0134139      20.48383       6.1687692      1.5200574      14.51677       4.5662577      1.6025115      7.6888267    
      1300   26             29.994452      1.0124455      20.549748      6.1583614      1.5186049      14.526882      4.5685415      1.58982        7.6769664    
      1400   28             28.252227      1.0115377      20.489243      6.1719432      1.5172434      14.518934      4.5709406      1.6010026      7.6891866    
      1500   30             29.082045      1.0138999      20.553605      6.1723588      1.5207865      14.544347      4.5713221      1.6010367      7.6931453    
      1600   32             28.783183      1.0131793      20.486277      6.1748609      1.5197056      14.523325      4.5679172      1.6069437      7.6945664    
      1700   34             27.370729      1.018645       20.565128      6.1751186      1.5279038      14.558065      4.5732335      1.601885       7.7030224    
      1800   36             28.220683      1.0085382      20.486837      6.1702853      1.5127443      14.511975      4.5644499      1.6058354      7.6830296    
      1900   38             27.902001      1.0065425      20.613246      6.1533814      1.5097509      14.534214      4.5645144      1.588867       7.6631323    
      2000   40             26.689043      1.0072057      20.549705      6.1684547      1.5107457      14.529102      4.5752432      1.5932115      7.6792003    
      2100   42             31.876298      1.0076706      20.515332      6.1663256      1.5114429      14.516212      4.566092       1.6002336      7.6777685    
      2200   44             30.917003      1.0087008      20.56348       6.1679891      1.5129881      14.535471      4.5671773      1.6008118      7.6809772    
      2300   46             28.915982      1.0116359      20.562411      6.1616255      1.5173906      14.533153      4.5685217      1.5931038      7.6790161    
      2400   48             29.615687      1.005654       20.598184      6.1612275      1.5084182      14.535707      4.5625146      1.5987129      7.6696457    
      2500   50             28.026179      1.0083003      20.603938      6.150778       1.5123874      14.531145      4.5751178      1.5756603      7.6631654    
      2600   52             28.868047      1.0063934      20.612877      6.1683329      1.5095272      14.548819      4.5669674      1.6013655      7.6778601    
      2700   54             28.576847      1.0154524      20.67463       6.1493941      1.5231152      14.564053      4.5703031      1.579091       7.6725093    
      2800   56             27.149016      1.0146396      20.542422      6.1729073      1.521896       14.542277      4.5560537      1.6168536      7.6948033    
      2900   58             28.068929      1.0151319      20.558352      6.1634277      1.5226344      14.538846      4.5724337      1.590994       7.6860621    
      3000   60             27.794593      1.0117169      20.513512      6.1725056      1.5175122      14.527855      4.5638047      1.6087009      7.6900178    
      3100   62             30.78278       1.0101805      20.61931       6.1836079      1.5152076      14.571919      4.5767178      1.6068901      7.6988154    
      3200   64             30.761856      1.0113805      20.50749       6.1638502      1.5170076      14.516688      4.5711698      1.5926804      7.6808578    
      3300   66             29.932798      1.0079003      20.551819      6.1597868      1.5117875      14.522181      4.560664       1.5991228      7.6715743    
      3400   68             28.371198      1.0124166      20.561175      6.1688277      1.5185617      14.541114      4.5727749      1.5960529      7.6873894    
      3500   70             29.083465      1.0146811      20.544167      6.1682328      1.5219582      14.538247      4.5671436      1.6010891      7.690191     
      3600   72             28.816558      1.0012144      20.471534      6.1656291      1.5017591      14.491233      4.572433       1.5931961      7.6673882    
      3700   74             27.391898      1.0002313      20.423688      6.1621054      1.5002844      14.470286      4.5602291      1.6018763      7.6623898    
      3800   76             28.258736      1.0103766      20.56705       6.1708204      1.5155017      14.542005      4.5710697      1.5997507      7.6863222    
      3900   78             28.00462       1.0137067      20.557724      6.173565       1.5204967      14.546636      4.5728621      1.6007029      7.6940617    
      4000   80             27.785739      1.0126386      20.549085      6.1619133      1.5188946      14.530503      4.5594908      1.6024226      7.6808079    
      4100   82             30.869323      1.0053411      20.452275      6.1777158      1.5079489      14.50309       4.5644864      1.6132294      7.6856646    
      4200   84             29.503062      1.0123766      20.585856      6.1567695      1.5185016      14.537223      4.5637728      1.5929966      7.6752711    
      4300   86             29.91024       1.0122455      20.583558      6.1686272      1.5183051      14.548118      4.5609058      1.6077214      7.6869323    
      4400   88             28.240014      1.0205903      20.591728      6.1619779      1.5308217      14.556709      4.5690404      1.5929376      7.6927996    
      4500   90             29.065794      1.0102101      20.587869      6.1658686      1.515252       14.543744      4.5706423      1.5952263      7.6811206    
      4600   92             27.617355      1.0074614      20.535492      6.1771249      1.5111292      14.533418      4.5683199      1.608805       7.6882541    
      4700   94             28.470717      1.0002979      20.533896      6.1910049      1.5003843      14.536021      4.5731706      1.6178343      7.6913892    
      4800   96             28.218268      1.0104741      20.573555      6.1768934      1.5156479      14.550393      4.5709731      1.6059203      7.6925413    
      4900   98             28.019796      1.0085082      20.561332      6.1763871      1.5126992      14.542864      4.5715667      1.6048204      7.6890863    
      5000   100            26.946163      1.0000758      20.531458      6.1572615      1.5000513      14.501132      4.5667751      1.5904864      7.6573128    
Loop time of 174.501 on 1 procs for 5000 steps with 24000 atoms

Performance: 49512.743 tau/day, 28.653 timesteps/s, 687.677 katom-step/s
100.0% CPU use with 1 MPI tasks x 1 OpenMP threads

MPI task timing breakdown:
Section |  min time  |  avg time  |  max time  |%varavg| %total
---------------------------------------------------------------
Pair    | 109.95     | 109.95     | 109.95     |   0.0 | 63.01
Bond    | 1.8111     | 1.8111     | 1.8111     |   0.0 |  1.04
Neigh   | 58.197     | 58.197     | 58.197     |   0.0 | 33.35
Comm    | 2.5289     | 2.5289     | 2.5289     |   0.0 |  1.45
Output  | 0.11612    | 0.11612    | 0.11612    |   0.0 |  0.07
Modify  | 1.106      | 1.106      | 1.106      |   0.0 |  0.63
Other   |            | 0.7947     |            |       |  0.46

Nlocal:          24000 ave       24000 max       24000 min
Histogram: 1 0 0 0 0 0 0 0 0 0
Nghost:          28752 ave       28752 max       28752 min
Histogram: 1 0 0 0 0 0 0 0 0 0
Neighs:    4.06032e+06 ave 4.06032e+06 max 4.06032e+06 min
Histogram: 1 0 0 0 0 0 0 0 0 0

Total # of neighbors = 4060318
Ave neighs/atom = 169.17992
Ave special neighs/atom = 4.8
Neighbor list builds = 420
Dangerous builds = 0

write_data nve_dpd.data pair ij
System init for write_data ...
Generated 0 of 1 mixed pair_coeff terms from geometric mixing rule

# unfix		1
# reset_timestep	0

# # main run
# pair_style	dpd 1.0 1.0 20202
# pair_coeff	1 1 25.0 4.5
# pair_coeff	1 2 50.0 4.5
# pair_coeff	2 2 25.0 4.5

# # variable	prefactor equal ramp(1.0,20.0)

# fix		2 all nve
# # fix		2 all temp/rescale 1000 1.0 1.0 0.05 1.0
# # fix		3 all adapt 1 pair soft a * * v_prefactor

# dump            1 all xyz 500000 snapshot_*.xyz
# dump_modify	1 element A B
# dump            2 all dcd 5000 output.dcd

# # minimize        0 1.0e-8 1000 1000
# run		500000
Total wall time: 0:02:55
