LAMMPS data file Created by LigParGen - (Written by Leela S. Dodda)

      21 atoms
      21 bonds
      32 angles
      40 dihedrals
      10 impropers
 
      21 atom types
      21 bond types
      32 angle types
      40 dihedral types
      10 improper types
 
   -10.000000    10.000000 xlo xhi
   -10.000000    10.000000 ylo yhi
   -10.000000    10.000000 zlo zhi

Masses

       1     12.011  
       2     12.011  
       3     15.999  
       4     15.999  
       5     12.011  
       6     12.011  
       7     12.011  
       8     12.011  
       9     12.011  
      10     12.011  
      11     12.011  
      12     15.999  
      13     15.999  
      14      1.008  
      15      1.008  
      16      1.008  
      17      1.008  
      18      1.008  
      19      1.008  
      20      1.008  
      21      1.008  

Pair Coeffs 

       1      0.066  3.5000000 
       2      0.070  3.5500000 
       3      0.210  2.9600000 
       4      0.140  2.9000000 
       5      0.070  3.5500000 
       6      0.070  3.5500000 
       7      0.070  3.5500000 
       8      0.070  3.5500000 
       9      0.070  3.5500000 
      10      0.070  3.5500000 
      11      0.070  3.5500000 
      12      0.210  2.9600000 
      13      0.170  3.1200000 
      14      0.030  2.5000000 
      15      0.030  2.5000000 
      16      0.030  2.5000000 
      17      0.030  2.4200000 
      18      0.030  2.4200000 
      19      0.030  2.4200000 
      20      0.030  2.4200000 
      21      0.000  0.0000000 

Bond Coeffs 

       1   317.0000     1.5220 
       2   570.0000     1.2290 
       3   214.0000     1.3270 
       4   450.0000     1.3640 
       5   469.0000     1.4000 
       6   469.0000     1.4000 
       7   469.0000     1.4000 
       8   469.0000     1.4000 
       9   469.0000     1.4000 
      10   400.0000     1.4900 
      11   570.0000     1.2290 
      12   450.0000     1.3640 
      13   340.0000     1.0900 
      14   340.0000     1.0900 
      15   340.0000     1.0900 
      16   367.0000     1.0800 
      17   367.0000     1.0800 
      18   367.0000     1.0800 
      19   367.0000     1.0800 
      20   553.0000     0.9450 
      21   469.0000     1.4000 

Angle Coeffs 

       1     80.000    120.400
       2     81.000    111.400
       3     83.000    116.900
       4     70.000    120.000
       5     63.000    120.000
       6     63.000    120.000
       7     63.000    120.000
       8     70.000    120.000
       9     85.000    120.000
      10     80.000    120.400
      11     70.000    120.000
      12     35.000    109.500
      13     35.000    109.500
      14     35.000    109.500
      15     35.000    120.000
      16     35.000    120.000
      17     35.000    120.000
      18     35.000    120.000
      19     35.000    113.000
      20     35.000    120.000
      21     35.000    120.000
      22     33.000    107.800
      23     63.000    120.000
      24     63.000    120.000
      25     33.000    107.800
      26     35.000    120.000
      27     33.000    107.800
      28     83.000    123.400
      29     80.000    121.000
      30     85.000    120.000
      31     63.000    120.000
      32     35.000    120.000

Dihedral Coeffs  

       1      1.500      5.000      0.000      0.000 
       2      0.000      2.500      0.000      0.000 
       3      0.000      7.250      0.000      0.000 
       4      0.000      7.250      0.000      0.000 
       5      0.000      7.250      0.000      0.000 
       6      0.000      2.100      0.000      0.000 
       7      0.000      0.000      0.000      0.000 
       8      4.000      5.000      0.000      0.000 
       9      0.000      7.250      0.000      0.000 
      10      0.000      7.250      0.000      0.000 
      11      0.000      7.250      0.000      0.000 
      12      0.000      2.100      0.000      0.000 
      13      0.000      7.250      0.000      0.000 
      14      0.000      5.000      0.000      0.000 
      15      0.000      7.250      0.000      0.000 
      16      0.000      2.100      0.000      0.000 
      17      0.000      7.250      0.000      0.000 
      18      0.000      7.250      0.000      0.000 
      19      0.000      2.100      0.000      0.000 
      20      0.000      7.250      0.000      0.000 
      21      0.000      7.250      0.000      0.000 
      22      0.000      2.500      0.000      0.000 
      23      0.000      7.250      0.000      0.000 
      24      0.000      7.250      0.000      0.000 
      25      0.000      7.250      0.000      0.000 
      26      0.000      7.250      0.000      0.000 
      27      0.000      7.250      0.000      0.000 
      28      0.000      7.250      0.000      0.000 
      29      0.000      7.250      0.000      0.000 
      30      0.000      0.000      0.132      0.000 
      31      0.000      0.000      0.000      0.000 
      32      0.000      7.250      0.000      0.000 
      33      0.000      7.250      0.000      0.000 
      34      0.000      0.000      0.000      0.000 
      35      0.000      0.000      0.132      0.000 
      36      0.000      5.500      0.000      0.000 
      37      0.000      7.250      0.000      0.000 
      38      0.000      0.000      0.132      0.000 
      39      0.000      7.250      0.000      0.000 
      40      0.000      7.250      0.000      0.000 

Improper Coeffs 

       1     10.500      -1       2 
       2      2.500      -1       2 
       3      2.500      -1       2 
       4     10.500      -1       2 
       5      0.000      -1       2 
       6      0.000      -1       2 
       7      2.500      -1       2 
       8      2.500      -1       2 
       9      2.500      -1       2 
      10      2.500      -1       2 
      
Atoms 

     1      1      1 -0.25760000    1.000  1.00000  0.00000 # C
     2      1      2 0.46310000   -0.500  1.00000  0.00000 # C
     3      1      3 -0.40810000   -1.183  1.00000  1.01287 # O
     4      1      4 -0.36050000   -0.959  0.99833 -1.32319 # O
     5      1      5 0.13010000   -2.347  0.99643 -1.60262 # C
     6      1      6 -0.16640000   -3.239  1.75093 -0.83471 # C
     7      1      7 -0.08570000   -4.604  1.73253 -1.12784 # C
     8      1      8 -0.16090000   -5.080  0.96296 -2.18531 # C
     9      1      9 -0.05480000   -4.191  0.20929 -2.95267 # C
    10      1     10 -0.20730000   -2.814  0.26326 -2.70641 # C
    11      1     11 0.57630000   -1.932 -0.47424 -3.64812 # C
    12      1     12 -0.45460000   -2.295 -1.47539 -4.24237 # O
    13      1     13 -0.54420000   -0.727  0.09624 -3.85303 # O
    14      1     14 0.13650000    1.357  1.28952  0.99305 # H
    15      1     15 0.13650000    1.380  1.73015 -0.71915 # H
    16      1     16 0.13650000    1.365 -0.00202 -0.23448 # H
    17      1     17 0.17120000   -2.897  2.36018 -0.00252 # H
    18      1     18 0.15330000   -5.293  2.32125 -0.52527 # H
    19      1     19 0.15370000   -6.144  0.94849 -2.41197 # H
    20      1     20 0.17490000   -4.580 -0.42535 -3.74807 # H
    21      1     21 0.46790000   -0.592  0.92273 -3.35244 # H

Bonds 

     1      1      2      1
     2      2      3      2
     3      3      4      2
     4      4      5      4
     5      5      6      5
     6      6      7      6
     7      7      8      7
     8      8      9      8
     9      9     10      5
    10     10     11     10
    11     11     12     11
    12     12     13     11
    13     13     14      1
    14     14     15      1
    15     15     16      1
    16     16     17      6
    17     17     18      7
    18     18     19      8
    19     19     20      9
    20     20     21     13
    21     21     10      9

Angles 

     1      1      1      2      3
     2      2      1      2      4
     3      3      2      4      5
     4      4      4      5      6
     5      5      5      6      7
     6      6      6      7      8
     7      7      7      8      9
     8      8      4      5     10
     9      9      5     10     11
    10     10     10     11     12
    11     11     10     11     13
    12     12      2      1     14
    13     13      2      1     15
    14     14      2      1     16
    15     15      5      6     17
    16     16      6      7     18
    17     17      7      8     19
    18     18      8      9     20
    19     19     11     13     21
    20     20      7      6     17
    21     21      8      7     18
    22     22     14      1     16
    23     23      6      5     10
    24     24      5     10      9
    25     25     14      1     15
    26     26      9      8     19
    27     27     15      1     16
    28     28      3      2      4
    29     29     12     11     13
    30     30      9     10     11
    31     31      8      9     10
    32     32     10      9     20

Dihedrals

     1      1      5      4      2      1 
     2      2      6      5      4      2 
     3      3      7      6      5      4 
     4      4      8      7      6      5 
     5      5      9      8      7      6 
     6      6     12     11     10      5 
     7      7     14      1      2      3 
     8      8     21     13     11     10 
     9      9     18      7      6     17 
    10     10     20      9      8      7 
    11     11     19      8      7      6 
    12     12     12     11     10      9 
    13     13      8      9     10      5 
    14     14      5      4      2      3 
    15     15     20      9      8     19 
    16     16     13     11     10      9 
    17     17     10      5      6      7 
    18     18     11     10      5      4 
    19     19     13     11     10      5 
    20     20     17      6      5     10 
    21     21     10      9      8      7 
    22     22     10      5      4      2 
    23     23     17      6      5      4 
    24     24     19      8      9     10 
    25     25     18      7      6      5 
    26     26     19      8      7     18 
    27     27     20      9     10     11 
    28     28     11     10      9      8 
    29     29     20      9     10      5 
    30     30     15      1      2      4 
    31     31     16      1      2      3 
    32     32     18      7      8      9 
    33     33      9     10      5      4 
    34     34     15      1      2      3 
    35     35     14      1      2      4 
    36     36     21     13     11     12 
    37     37     17      6      7      8 
    38     38     16      1      2      4 
    39     39      9     10      5      6 
    40     40     11     10      5      6 

Impropers

     1      1      2      1      3      4 
     2      2      5     10      4      6 
     3      3     10      9     11      5 
     4      4     11     10     12     13 
     5      5      1      2     14     15 
     6      6      1      2     14     16 
     7      7      6     17      5      7 
     8      8      7     18      6      8 
     9      9      8      9     19      7 
    10     10      9     10     20      8 

