Created on Fri Oct 07 14:05:39 2022 

        1232 atoms
        1621 bonds
        3207 angles
         200 dihedrals
         40 impropers

           18 atom types
           18 bond types
           29 angle types
           40 dihedral types
           8 improper types
           -13.913  13.913 xlo xhi
           -17.60585 17.60585 ylo yhi
           -10.3312  10.3312 zlo zhi
           0.000000   0.000000   0.000000 xy xz yz

Masses

    1    15.999400000 # O_2
    2    28.085500000 # Si3
       3      1.008  
       4     12.011  
       5     12.011  
       6     12.011  
       7      1.008  
       8     14.007  
       9      1.008  
       10     12.011  
       11     12.011  
      12      1.008  
      13     12.011  
      14      1.008  
      15     12.011  
      16      1.008  
      17     12.011  
      18      1.008  

Bond Coeffs

    1      285.0        1.68  # O_2 Si3
       2   367.0000     1.0800 
       3   469.0000     1.4240 
       4   546.0000     1.3670 
       5   367.0000     1.0800 
       6   427.0000     1.3810 
       7   434.0000     1.0100 
       8   469.0000     1.4240 
       9   469.0000     1.4000 
    10   367.0000     1.0800 
      11   469.0000     1.4040 
      12   367.0000     1.0800 
      13   469.0000     1.4000 
      14   367.0000     1.0800 
      15   469.0000     1.4000 
      16   367.0000     1.0800 
      17   436.0000     1.3740 
      18   469.0000     1.4000 

Angle Coeffs

    1              100.0        149.0    # Si3 O_2 Si3
    2              100.0        109.5    # O_2 Si3 O_2
3 35 127.5 
4 35 125.7 
5 35 132.1 
6 70 107.7 
7 35 120 
8 70 107.3 
9 63 120 
10 35 120 
11 85 134.9 
12 35 120 
13 63 120 
14 35 120 
15 63 120 
16 35 120 
17 35 121.6 
18 35 120 
19 35 120 
20 70 107.7 
21 35 120 
22 63 120 
23 70 107.3 
24 63 120 
25 30 125.8 
26 63 120 
27 70 109.8 
28 70 108.7 
29 35 120 

Dihedral Coeffs  

       1      0.000      7.250      0.000      0.000 
       2      0.000      5.000      0.000      0.000 
       3      0.000      7.250      0.000      0.000 
       4      0.000      7.250      0.000      0.000 
       5      0.000      7.250      0.000      0.000 
       6      0.000      7.250      0.000      0.000 
       7      0.000      2.170      0.000      0.000 
       8      0.000      2.170      0.000      0.000 
       9      0.000      7.000      0.000      0.000 
      10      0.000      7.250      0.000      0.000 
      11      0.000      7.250      0.000      0.000 
      12      0.000      7.250      0.000      0.000 
      13      0.000      7.250      0.000      0.000 
      14      0.000      7.250      0.000      0.000 
      15      0.000      7.250      0.000      0.000 
      16      0.000      7.250      0.000      0.000 
      17      0.000      5.000      0.000      0.000 
      18      0.000      7.250      0.000      0.000 
      19      0.000      2.170      0.000      0.000 
      20      0.000      7.000      0.000      0.000 
      21      0.000      7.250      0.000      0.000 
      22      0.000      7.250      0.000      0.000 
      23      0.000      7.250      0.000      0.000 
      24      0.000      7.250      0.000      0.000 
      25      0.000      7.250      0.000      0.000 
      26      0.000      7.250      0.000      0.000 
      27      0.000      7.250      0.000      0.000 
      28      0.000      7.250      0.000      0.000 
      29      0.000      7.250      0.000      0.000 
      30      0.000      7.250      0.000      0.000 
      31      0.000      7.250      0.000      0.000 
      32      0.000      2.170      0.000      0.000 
      33      0.000      7.250      0.000      0.000 
      34      0.000      5.000      0.000      0.000 
      35      0.000      5.000      0.000      0.000 
      36      0.000      5.000      0.000      0.000 
      37      0.000      7.250      0.000      0.000 
      38      0.000      7.250      0.000      0.000 
      39      0.000      5.000      0.000      0.000 
      40      0.000      2.170      0.000      0.000 

      
Improper Coeffs 

       1      2.500      -1       2 
       2      2.500      -1       2 
       3      2.500      -1       2 
       4      2.500      -1       2 
       5      2.500      -1       2 
       6      2.500      -1       2 
       7      2.500      -1       2 
       8      2.500      -1       2 

Pair Coeffs

    1        0.054000        3.47 # O_2 O_2
    2        0.093        4.15 # Si3 Si3
       3      0.030  2.4200000 
       4      0.070  3.5500000 
       5      0.070  3.5500000 
       6      0.070  3.5500000 
       7      0.030  2.4200000 
       8      0.170  3.2500000 
       9      0.000  0.0000000 
       10      0.080  3.5000000 
       11      0.070  3.5500000 
      12      0.030  2.4200000 
      13      0.070  3.5500000 
      14      0.030  2.4200000 
      15      0.070  3.5500000 
      16      0.030  2.4200000 
      17      0.070  3.5500000 
      18      0.030  2.4200000 

Atoms

       1      444        1     0.00000    3.78979    0.00000    0.00000
       2      444        1     0.00000   10.74581    8.80293    0.00000
       3      444        1     0.00000   10.21463   -0.00070    2.58259
       4      444        1     0.00000    3.25833    8.80257    2.58280
       5      444        1     0.00000   10.21463    0.00000    0.00000
       6      444        1     0.00000    3.25833    8.80293    0.00000
       7      444        1     0.00000    3.78979   -0.00035    2.58280
       8      444        1     0.00000   10.74609    8.80222    2.58259
       9      444        1     0.00000    5.72337    1.19966    1.29161
      10      444        1     0.00000    3.24748    2.15636    1.29161
      11      444        1     0.00000    1.32225    3.84864    1.29140
      12      444        2     0.00000    4.16237    0.85248    1.29140
      13      444        2     0.00000    2.91469    3.70990    1.29140
      14      444        1     0.00000   12.67966   10.00259    1.29161
      15      444        1     0.00000   10.20378   10.95929    1.29202
      16      444        1     0.00000    8.27855   12.65192    1.29140
      17      444        2     0.00000   11.11867    9.65540    1.29161
      18      444        2     0.00000    9.87099   12.51283    1.29161
      19      444        1     0.00000    8.28078   16.40584    3.87441
      20      444        1     0.00000   10.75694   15.44949    3.87503
      21      444        1     0.00000   12.68189   13.75686    3.87420
      22      444        2     0.00000    9.84177   16.75302    3.87441
      23      444        2     0.00000   11.08945   13.89595    3.87441
      24      444        1     0.00000    1.32448    7.60291    3.87420
      25      444        1     0.00000    3.80064    6.64656    3.87441
      26      444        1     0.00000    5.72559    4.95393    3.87420
      27      444        2     0.00000    2.88547    7.95010    3.87420
      28      444        2     0.00000    4.13316    5.09302    3.87420
      29      444        1     0.00000    8.28078    1.19966    1.29161
      30      444        1     0.00000   10.75694    2.15636    1.29202
      31      444        1     0.00000   12.68189    3.84864    1.29140
      32      444        2     0.00000    9.84205    0.85248    1.29161
      33      444        2     0.00000   11.08945    3.70990    1.29161
      34      444        1     0.00000    1.32448   10.00294    1.29140
      35      444        1     0.00000    3.80064   10.95929    1.29161
      36      444        1     0.00000    5.72559   12.65192    1.29140
      37      444        2     0.00000    2.88575    9.65540    1.29140
      38      444        2     0.00000    4.13316   12.51283    1.29140
      39      444        1     0.00000    5.72337   16.40584    3.87420
      40      444        1     0.00000    3.24720   15.44949    3.87441
      41      444        1     0.00000    1.32225   13.75686    3.87420
      42      444        2     0.00000    4.16237   16.75302    3.87420
      43      444        2     0.00000    2.91469   13.89559    3.87420
      44      444        1     0.00000   12.67966    7.60291    3.87441
      45      444        1     0.00000   10.20350    6.64656    3.87503
      46      444        1     0.00000    8.27855    4.95393    3.87420
      47      444        2     0.00000   11.11867    7.95010    3.87441
      48      444        2     0.00000    9.87099    5.09302    3.87441
      49      444        1     0.00000    3.52406    4.40111    0.00000
      50      444        1     0.00000   10.48008   13.20474    2.58259
      51      444        1     0.00000    3.52406    4.40146    2.58280
      52      444        1     0.00000   10.48036    4.40181    2.58259
      53      444        1     0.00000    3.52378   13.20404    0.00000
      54      444        1     0.00000   10.48036   13.20404    0.00000
      55      444        1     0.00000    3.52406   13.20439    2.58280
      56      444        1     0.00000   10.48036    4.40111    0.00000
      57      444        1     0.00000    0.04591    5.73951    2.57784
      58      444        1     0.00000    7.00221   14.54243    2.57784
      59      444        1     0.00000    0.04619   11.86634   -0.00496
      60      444        1     0.00000    7.00221    3.06307   -0.00496
      61      444        1     0.00000    0.04591    5.73951    0.00517
      62      444        1     0.00000    7.00221   14.54243    0.00496
      63      444        1     0.00000    0.04591   11.86634    2.58797
      64      444        1     0.00000    7.00221    3.06342    2.58776
      65      444        2     0.00000    0.04591    4.80710    1.29140
      66      444        2     0.00000    7.00221   13.61038    1.29140
      67      444        2     0.00000    0.04591   12.79840    3.87420
      68      444        2     0.00000    7.00221    3.99547    3.87420
      69      444        2     0.00000    7.00221    2.14791    1.29140
      70      444        2     0.00000    0.04591   10.95084    1.29140
      71      444        2     0.00000    7.00221   15.45758    3.87420
      72      444        2     0.00000    0.04591    6.65466    3.87420
      73      444        1     0.00000   17.70239   -0.00035    0.00000
      74      444        1     0.00000   24.65897    8.80257    0.00021
      75      444        1     0.00000   24.12695    0.00035    2.58301
      76      444        1     0.00000   17.17065    8.80293    2.58280
      77      444        1     0.00000   24.12695   -0.00035    0.00021
      78      444        1     0.00000   17.17065    8.80257    0.00000
      79      444        1     0.00000   17.70239    0.00000    2.58280
      80      444        1     0.00000   24.65869    8.80328    2.58301
      81      444        1     0.00000   19.63596    1.20001    1.29140
      82      444        1     0.00000   17.15980    2.15636    1.29119
      83      444        1     0.00000   15.23485    3.84899    1.29140
      84      444        2     0.00000   18.07497    0.85248    1.29140
      85      444        2     0.00000   16.82729    3.70990    1.29140
      86      444        1     0.00000   26.59226   10.00294    1.29119
      87      444        1     0.00000   24.11610   10.95894    1.29078
      88      444        1     0.00000   22.19115   12.65156    1.29140
      89      444        2     0.00000   25.03127    9.65540    1.29140
      90      444        2     0.00000   23.78359   12.51283    1.29140
      91      444        1     0.00000   22.19338   16.40584    3.87399
      92      444        1     0.00000   24.66954   15.44949    3.87358
      93      444        1     0.00000   26.59449   13.75686    3.87420
      94      444        2     0.00000   23.75437   16.75302    3.87399
      95      444        2     0.00000   25.00205   13.89559    3.87420
      96      444        1     0.00000   15.23708    7.60291    3.87420
      97      444        1     0.00000   17.71324    6.64656    3.87399
      98      444        1     0.00000   19.63819    4.95393    3.87420
      99      444        2     0.00000   16.79835    7.95010    3.87420
     100      444        2     0.00000   18.04575    5.09267    3.87420
     101      444        1     0.00000   22.19338    1.20001    1.29119
     102      444        1     0.00000   24.66954    2.15601    1.29078
     103      444        1     0.00000   26.59449    3.84899    1.29140
     104      444        2     0.00000   23.75437    0.85248    1.29140
     105      444        2     0.00000   25.00205    3.70990    1.29140
     106      444        1     0.00000   15.23708   10.00259    1.29140
     107      444        1     0.00000   17.71324   10.95929    1.29119
     108      444        1     0.00000   19.63819   12.65156    1.29140
     109      444        2     0.00000   16.79807    9.65540    1.29140
     110      444        2     0.00000   18.04575   12.51283    1.29140
     111      444        1     0.00000   19.63596   16.40584    3.87420
     112      444        1     0.00000   17.16008   15.44949    3.87399
     113      444        1     0.00000   15.23485   13.75686    3.87420
     114      444        2     0.00000   18.07497   16.75302    3.87420
     115      444        2     0.00000   16.82729   13.89559    3.87420
     116      444        1     0.00000   26.59226    7.60291    3.87399
     117      444        1     0.00000   24.11610    6.64656    3.87358
     118      444        1     0.00000   22.19115    4.95393    3.87420
     119      444        2     0.00000   25.03127    7.95010    3.87399
     120      444        2     0.00000   23.78359    5.09267    3.87420
     121      444        1     0.00000   17.43666    4.40146    0.00000
     122      444        1     0.00000   24.39296   13.20368    2.58301
     123      444        1     0.00000   17.43666    4.40111    2.58280
     124      444        1     0.00000   24.39268    4.40076    2.58301
     125      444        1     0.00000   17.43666   13.20439    0.00000
     126      444        1     0.00000   24.39268   13.20474    0.00021
     127      444        1     0.00000   17.43666   13.20404    2.58280
     128      444        1     0.00000   24.39296    4.40181    0.00021
     129      444        1     0.00000   13.95823    5.73951    2.57784
     130      444        1     0.00000   20.91453   14.54243    2.57784
     131      444        1     0.00000   13.95823   11.86599   -0.00496
     132      444        1     0.00000   20.91453    3.06342   -0.00496
     133      444        1     0.00000   13.95823    5.73951    0.00517
     134      444        1     0.00000   20.91453   14.54243    0.00517
     135      444        1     0.00000   13.95851   11.86634    2.58776
     136      444        1     0.00000   20.91481    3.06342    2.58797
     137      444        2     0.00000   13.95851    4.80745    1.29140
     138      444        2     0.00000   20.91481   13.61003    1.29140
     139      444        2     0.00000   13.95851   12.79840    3.87420
     140      444        2     0.00000   20.91481    3.99547    3.87420
     141      444        2     0.00000   20.91481    2.14791    1.29140
     142      444        2     0.00000   13.95823   10.95084    1.29140
     143      444        2     0.00000   20.91481   15.45758    3.87420
     144      444        2     0.00000   13.95851    6.65466    3.87420
     145      444        1     0.00000    3.78979   17.60585    0.00000
     146      444        1     0.00000   10.74581   26.40877    0.00000
     147      444        1     0.00000   10.21463   17.60515    2.58259
     148      444        1     0.00000    3.25833   26.40842    2.58280
     149      444        1     0.00000   10.21463   17.60585    0.00000
     150      444        1     0.00000    3.25833   26.40877    0.00000
     151      444        1     0.00000    3.78979   17.60550    2.58280
     152      444        1     0.00000   10.74609   26.40807    2.58259
     153      444        1     0.00000    5.72337   18.80551    1.29161
     154      444        1     0.00000    3.24748   19.76221    1.29161
     155      444        1     0.00000    1.32225   21.45449    1.29140
     156      444        2     0.00000    4.16237   18.45833    1.29140
     157      444        2     0.00000    2.91469   21.31575    1.29140
     158      444        1     0.00000   12.67966   27.60844    1.29161
     159      444        1     0.00000   10.20378   28.56514    1.29202
     160      444        1     0.00000    8.27855   30.25777    1.29140
     161      444        2     0.00000   11.11867   27.26125    1.29161
     162      444        2     0.00000    9.87099   30.11868    1.29161
     163      444        1     0.00000    8.28078   34.01169    3.87441
     164      444        1     0.00000   10.75694   33.05534    3.87503
     165      444        1     0.00000   12.68189   31.36271    3.87420
     166      444        2     0.00000    9.84177   34.35887    3.87441
     167      444        2     0.00000   11.08945   31.50180    3.87441
     168      444        1     0.00000    1.32448   25.20876    3.87420
     169      444        1     0.00000    3.80064   24.25241    3.87441
     170      444        1     0.00000    5.72559   22.55978    3.87420
     171      444        2     0.00000    2.88547   25.55595    3.87420
     172      444        2     0.00000    4.13316   22.69887    3.87420
     173      444        1     0.00000    8.28078   18.80551    1.29161
     174      444        1     0.00000   10.75694   19.76221    1.29202
     175      444        1     0.00000   12.68189   21.45449    1.29140
     176      444        2     0.00000    9.84205   18.45833    1.29161
     177      444        2     0.00000   11.08945   21.31575    1.29161
     178      444        1     0.00000    1.32448   27.60879    1.29140
     179      444        1     0.00000    3.80064   28.56514    1.29161
     180      444        1     0.00000    5.72559   30.25777    1.29140
     181      444        2     0.00000    2.88575   27.26125    1.29140
     182      444        2     0.00000    4.13316   30.11868    1.29140
     183      444        1     0.00000    5.72337   34.01169    3.87420
     184      444        1     0.00000    3.24720   33.05534    3.87441
     185      444        1     0.00000    1.32225   31.36271    3.87420
     186      444        2     0.00000    4.16237   34.35887    3.87420
     187      444        2     0.00000    2.91469   31.50144    3.87420
     188      444        1     0.00000   12.67966   25.20876    3.87441
     189      444        1     0.00000   10.20350   24.25241    3.87503
     190      444        1     0.00000    8.27855   22.55978    3.87420
     191      444        2     0.00000   11.11867   25.55595    3.87441
     192      444        2     0.00000    9.87099   22.69887    3.87441
     193      444        1     0.00000    3.52406   22.00696    0.00000
     194      444        1     0.00000   10.48008   30.81059    2.58259
     195      444        1     0.00000    3.52406   22.00731    2.58280
     196      444        1     0.00000   10.48036   22.00766    2.58259
     197      444        1     0.00000    3.52378   30.80989    0.00000
     198      444        1     0.00000   10.48036   30.80989    0.00000
     199      444        1     0.00000    3.52406   30.81024    2.58280
     200      444        1     0.00000   10.48036   22.00696    0.00000
     201      444        1     0.00000    0.04591   23.34536    2.57784
     202      444        1     0.00000    7.00221   32.14828    2.57784
     203      444        1     0.00000    0.04619   29.47219   -0.00496
     204      444        1     0.00000    7.00221   20.66892   -0.00496
     205      444        1     0.00000    0.04591   23.34536    0.00517
     206      444        1     0.00000    7.00221   32.14828    0.00496
     207      444        1     0.00000    0.04591   29.47219    2.58797
     208      444        1     0.00000    7.00221   20.66927    2.58776
     209      444        2     0.00000    0.04591   22.41295    1.29140
     210      444        2     0.00000    7.00221   31.21623    1.29140
     211      444        2     0.00000    0.04591   30.40425    3.87420
     212      444        2     0.00000    7.00221   21.60132    3.87420
     213      444        2     0.00000    7.00221   19.75376    1.29140
     214      444        2     0.00000    0.04591   28.55669    1.29140
     215      444        2     0.00000    7.00221   33.06343    3.87420
     216      444        2     0.00000    0.04591   24.26051    3.87420
     217      444        1     0.00000   17.70239   17.60550    0.00000
     218      444        1     0.00000   24.65897   26.40842    0.00021
     219      444        1     0.00000   24.12695   17.60620    2.58301
     220      444        1     0.00000   17.17065   26.40877    2.58280
     221      444        1     0.00000   24.12695   17.60550    0.00021
     222      444        1     0.00000   17.17065   26.40842    0.00000
     223      444        1     0.00000   17.70239   17.60585    2.58280
     224      444        1     0.00000   24.65869   26.40913    2.58301
     225      444        1     0.00000   19.63596   18.80586    1.29140
     226      444        1     0.00000   17.15980   19.76221    1.29119
     227      444        1     0.00000   15.23485   21.45484    1.29140
     228      444        2     0.00000   18.07497   18.45833    1.29140
     229      444        2     0.00000   16.82729   21.31575    1.29140
     230      444        1     0.00000   26.59226   27.60879    1.29119
     231      444        1     0.00000   24.11610   28.56479    1.29078
     232      444        1     0.00000   22.19115   30.25741    1.29140
     233      444        2     0.00000   25.03127   27.26125    1.29140
     234      444        2     0.00000   23.78359   30.11868    1.29140
     235      444        1     0.00000   22.19338   34.01169    3.87399
     236      444        1     0.00000   24.66954   33.05534    3.87358
     237      444        1     0.00000   26.59449   31.36271    3.87420
     238      444        2     0.00000   23.75437   34.35887    3.87399
     239      444        2     0.00000   25.00205   31.50144    3.87420
     240      444        1     0.00000   15.23708   25.20876    3.87420
     241      444        1     0.00000   17.71324   24.25241    3.87399
     242      444        1     0.00000   19.63819   22.55978    3.87420
     243      444        2     0.00000   16.79835   25.55595    3.87420
     244      444        2     0.00000   18.04575   22.69852    3.87420
     245      444        1     0.00000   22.19338   18.80586    1.29119
     246      444        1     0.00000   24.66954   19.76186    1.29078
     247      444        1     0.00000   26.59449   21.45484    1.29140
     248      444        2     0.00000   23.75437   18.45833    1.29140
     249      444        2     0.00000   25.00205   21.31575    1.29140
     250      444        1     0.00000   15.23708   27.60844    1.29140
     251      444        1     0.00000   17.71324   28.56514    1.29119
     252      444        1     0.00000   19.63819   30.25741    1.29140
     253      444        2     0.00000   16.79807   27.26125    1.29140
     254      444        2     0.00000   18.04575   30.11868    1.29140
     255      444        1     0.00000   19.63596   34.01169    3.87420
     256      444        1     0.00000   17.16008   33.05534    3.87399
     257      444        1     0.00000   15.23485   31.36271    3.87420
     258      444        2     0.00000   18.07497   34.35887    3.87420
     259      444        2     0.00000   16.82729   31.50144    3.87420
     260      444        1     0.00000   26.59226   25.20876    3.87399
     261      444        1     0.00000   24.11610   24.25241    3.87358
     262      444        1     0.00000   22.19115   22.55978    3.87420
     263      444        2     0.00000   25.03127   25.55595    3.87399
     264      444        2     0.00000   23.78359   22.69852    3.87420
     265      444        1     0.00000   17.43666   22.00731    0.00000
     266      444        1     0.00000   24.39296   30.80953    2.58301
     267      444        1     0.00000   17.43666   22.00696    2.58280
     268      444        1     0.00000   24.39268   22.00661    2.58301
     269      444        1     0.00000   17.43666   30.81024    0.00000
     270      444        1     0.00000   24.39268   30.81059    0.00021
     271      444        1     0.00000   17.43666   30.80989    2.58280
     272      444        1     0.00000   24.39296   22.00766    0.00021
     273      444        1     0.00000   13.95823   23.34536    2.57784
     274      444        1     0.00000   20.91453   32.14828    2.57784
     275      444        1     0.00000   13.95823   29.47184   -0.00496
     276      444        1     0.00000   20.91453   20.66927   -0.00496
     277      444        1     0.00000   13.95823   23.34536    0.00517
     278      444        1     0.00000   20.91453   32.14828    0.00517
     279      444        1     0.00000   13.95851   29.47219    2.58776
     280      444        1     0.00000   20.91481   20.66927    2.58797
     281      444        2     0.00000   13.95851   22.41330    1.29140
     282      444        2     0.00000   20.91481   31.21588    1.29140
     283      444        2     0.00000   13.95851   30.40425    3.87420
     284      444        2     0.00000   20.91481   21.60132    3.87420
     285      444        2     0.00000   20.91481   19.75376    1.29140
     286      444        2     0.00000   13.95823   28.55669    1.29140
     287      444        2     0.00000   20.91481   33.06343    3.87420
     288      444        2     0.00000   13.95851   24.26051    3.87420
     289      444        1     0.00000    3.78979    0.00000    5.16560
     290      444        1     0.00000   10.74609    8.80328    5.16560
     291      444        1     0.00000   10.21435   -0.00035    7.74840
     292      444        1     0.00000    3.25805    8.80293    7.74840
     293      444        1     0.00000   10.21435    0.00035    5.16560
     294      444        1     0.00000    3.25805    8.80293    5.16560
     295      444        1     0.00000    3.78979    0.00000    7.74840
     296      444        1     0.00000   10.74637    8.80257    7.74840
     297      444        1     0.00000    5.72337    1.20001    6.45700
     298      444        1     0.00000    3.24720    2.15601    6.45700
     299      444        1     0.00000    1.32225    3.84899    6.45700
     300      444        2     0.00000    4.16237    0.85248    6.45700
     301      444        2     0.00000    2.91469    3.70990    6.45700
     302      444        1     0.00000   12.67994   10.00294    6.45721
     303      444        1     0.00000   10.20350   10.95894    6.45741
     304      444        1     0.00000    8.27855   12.65156    6.45700
     305      444        2     0.00000   11.11867    9.65540    6.45721
     306      444        2     0.00000    9.87099   12.51283    6.45700
     307      444        1     0.00000    8.28078   16.40548    9.03980
     308      444        1     0.00000   10.75722   15.44949    9.03959
     309      444        1     0.00000   12.68189   13.75686    9.03980
     310      444        2     0.00000    9.84177   16.75302    9.03980
     311      444        2     0.00000   11.08945   13.89595    9.03980
     312      444        1     0.00000    1.32448    7.60291    9.03980
     313      444        1     0.00000    3.80064    6.64656    9.03980
     314      444        1     0.00000    5.72559    4.95393    9.03980
     315      444        2     0.00000    2.88547    7.95010    9.03980
     316      444        2     0.00000    4.13316    5.09302    9.03980
     317      444        1     0.00000    8.28078    1.20001    6.45721
     318      444        1     0.00000   10.75694    2.15601    6.45741
     319      444        1     0.00000   12.68189    3.84899    6.45700
     320      444        2     0.00000    9.84177    0.85248    6.45721
     321      444        2     0.00000   11.08945    3.70990    6.45700
     322      444        1     0.00000    1.32448   10.00259    6.45700
     323      444        1     0.00000    3.80064   10.95929    6.45721
     324      444        1     0.00000    5.72559   12.65156    6.45700
     325      444        2     0.00000    2.88547    9.65540    6.45700
     326      444        2     0.00000    4.13316   12.51283    6.45700
     327      444        1     0.00000    5.72337   16.40584    9.03980
     328      444        1     0.00000    3.24720   15.44949    9.03980
     329      444        1     0.00000    1.32225   13.75651    9.03980
     330      444        2     0.00000    4.16237   16.75302    9.03980
     331      444        2     0.00000    2.91469   13.89559    9.03980
     332      444        1     0.00000   12.67994    7.60256    9.03980
     333      444        1     0.00000   10.20350    6.64656    9.03959
     334      444        1     0.00000    8.27855    4.95393    9.03980
     335      444        2     0.00000   11.11867    7.95010    9.03980
     336      444        2     0.00000    9.87099    5.09302    9.03980
     337      444        1     0.00000    3.52406    4.40111    5.16560
     338      444        1     0.00000   10.48036   13.20439    7.74840
     339      444        1     0.00000    3.52406    4.40146    7.74840
     340      444        1     0.00000   10.48036    4.40146    7.74840
     341      444        1     0.00000    3.52406   13.20404    5.16560
     342      444        1     0.00000   10.48036   13.20368    5.16560
     343      444        1     0.00000    3.52406   13.20439    7.74840
     344      444        1     0.00000   10.48008    4.40076    5.16560
     345      444        1     0.00000    0.04563    5.73951    7.74344
     346      444        1     0.00000    7.00193   14.54208    7.74344
     347      444        1     0.00000    0.04563   11.86634    5.16064
     348      444        1     0.00000    7.00221    3.06342    5.16064
     349      444        1     0.00000    0.04563    5.73951    5.17077
     350      444        1     0.00000    7.00193   14.54208    5.17056
     351      444        1     0.00000    0.04563   11.86599    7.75357
     352      444        1     0.00000    7.00193    3.06342    7.75357
     353      444        2     0.00000    0.04563    4.80745    6.45700
     354      444        2     0.00000    7.00221   13.61003    6.45700
     355      444        2     0.00000    0.04563   12.79840    9.03980
     356      444        2     0.00000    7.00221    3.99547    9.03980
     357      444        2     0.00000    7.00193    2.14791    6.45700
     358      444        2     0.00000    0.04563   10.95084    6.45700
     359      444        2     0.00000    7.00193   15.45758    9.03980
     360      444        2     0.00000    0.04563    6.65501    9.03980
     361      444        1     0.00000   17.70239   -0.00035    5.16560
     362      444        1     0.00000   24.65869    8.80257    5.16581
     363      444        1     0.00000   24.12723    0.00000    7.74840
     364      444        1     0.00000   17.17093    8.80293    7.74840
     365      444        1     0.00000   24.12723   -0.00035    5.16581
     366      444        1     0.00000   17.17093    8.80257    5.16560
     367      444        1     0.00000   17.70239    0.00000    7.74840
     368      444        1     0.00000   24.65841    8.80293    7.74840
     369      444        1     0.00000   19.63596    1.19966    6.45700
     370      444        1     0.00000   17.16008    2.15636    6.45700
     371      444        1     0.00000   15.23485    3.84864    6.45700
     372      444        2     0.00000   18.07497    0.85248    6.45700
     373      444        2     0.00000   16.82729    3.70990    6.45700
     374      444        1     0.00000   26.59226   10.00259    6.45700
     375      444        1     0.00000   24.11638   10.95929    6.45659
     376      444        1     0.00000   22.19115   12.65192    6.45700
     377      444        2     0.00000   25.03127    9.65540    6.45700
     378      444        2     0.00000   23.78359   12.51283    6.45700
     379      444        1     0.00000   22.19338   16.40619    9.03980
     380      444        1     0.00000   24.66926   15.44949    9.04001
     381      444        1     0.00000   26.59449   13.75686    9.03980
     382      444        2     0.00000   23.75465   16.75337    9.03980
     383      444        2     0.00000   25.00205   13.89559    9.03980
     384      444        1     0.00000   15.23736    7.60291    9.03980
     385      444        1     0.00000   17.71324    6.64656    9.04001
     386      444        1     0.00000   19.63819    4.95358    9.03980
     387      444        2     0.00000   16.79835    7.95010    9.03980
     388      444        2     0.00000   18.04575    5.09267    9.03980
     389      444        1     0.00000   22.19338    1.19966    6.45700
     390      444        1     0.00000   24.66954    2.15636    6.45659
     391      444        1     0.00000   26.59449    3.84864    6.45700
     392      444        2     0.00000   23.75465    0.85248    6.45700
     393      444        2     0.00000   25.00205    3.70990    6.45700
     394      444        1     0.00000   15.23736   10.00259    6.45700
     395      444        1     0.00000   17.71324   10.95929    6.45700
     396      444        1     0.00000   19.63819   12.65192    6.45700
     397      444        2     0.00000   16.79835    9.65540    6.45700
     398      444        2     0.00000   18.04575   12.51283    6.45700
     399      444        1     0.00000   19.63596   16.40584    9.03980
     400      444        1     0.00000   17.16008   15.44949    9.04001
     401      444        1     0.00000   15.23485   13.75721    9.03980
     402      444        2     0.00000   18.07497   16.75302    9.03980
     403      444        2     0.00000   16.82729   13.89595    9.03980
     404      444        1     0.00000   26.59226    7.60291    9.03980
     405      444        1     0.00000   24.11638    6.64656    9.04001
     406      444        1     0.00000   22.19115    4.95393    9.03980
     407      444        2     0.00000   25.03127    7.95045    9.03980
     408      444        2     0.00000   23.78359    5.09267    9.03980
     409      444        1     0.00000   17.43666    4.40146    5.16560
     410      444        1     0.00000   24.39296   13.20404    7.74840
     411      444        1     0.00000   17.43666    4.40146    7.74840
     412      444        1     0.00000   24.39296    4.40111    7.74840
     413      444        1     0.00000   17.43666   13.20439    5.16560
     414      444        1     0.00000   24.39268   13.20474    5.16581
     415      444        1     0.00000   17.43666   13.20439    7.74840
     416      444        1     0.00000   24.39296    4.40181    5.16581
     417      444        1     0.00000   13.95879    5.73951    7.74344
     418      444        1     0.00000   20.91481   14.54243    7.74344
     419      444        1     0.00000   13.95851   11.86634    5.16064
     420      444        1     0.00000   20.91481    3.06342    5.16064
     421      444        1     0.00000   13.95851    5.73951    5.17056
     422      444        1     0.00000   20.91481   14.54243    5.17077
     423      444        1     0.00000   13.95879   11.86634    7.75357
     424      444        1     0.00000   20.91481    3.06307    7.75357
     425      444        2     0.00000   13.95851    4.80710    6.45700
     426      444        2     0.00000   20.91481   13.61038    6.45700
     427      444        2     0.00000   13.95851   12.79840    9.03980
     428      444        2     0.00000   20.91481    3.99547    9.03980
     429      444        2     0.00000   20.91481    2.14791    6.45700
     430      444        2     0.00000   13.95851   10.95084    6.45700
     431      444        2     0.00000   20.91481   15.45794    9.03980
     432      444        2     0.00000   13.95851    6.65466    9.03980
     433      444        1     0.00000    3.78979   17.60585    5.16560
     434      444        1     0.00000   10.74609   26.40913    5.16560
     435      444        1     0.00000   10.21435   17.60550    7.74840
     436      444        1     0.00000    3.25805   26.40877    7.74840
     437      444        1     0.00000   10.21435   17.60620    5.16560
     438      444        1     0.00000    3.25805   26.40877    5.16560
     439      444        1     0.00000    3.78979   17.60585    7.74840
     440      444        1     0.00000   10.74637   26.40842    7.74840
     441      444        1     0.00000    5.72337   18.80586    6.45700
     442      444        1     0.00000    3.24720   19.76186    6.45700
     443      444        1     0.00000    1.32225   21.45484    6.45700
     444      444        2     0.00000    4.16237   18.45833    6.45700
     445      444        2     0.00000    2.91469   21.31575    6.45700
     446      444        1     0.00000   12.67994   27.60879    6.45721
     447      444        1     0.00000   10.20350   28.56479    6.45741
     448      444        1     0.00000    8.27855   30.25741    6.45700
     449      444        2     0.00000   11.11867   27.26125    6.45721
     450      444        2     0.00000    9.87099   30.11868    6.45700
     451      444        1     0.00000    8.28078   34.01133    9.03980
     452      444        1     0.00000   10.75722   33.05534    9.03959
     453      444        1     0.00000   12.68189   31.36271    9.03980
     454      444        2     0.00000    9.84177   34.35887    9.03980
     455      444        2     0.00000   11.08945   31.50180    9.03980
     456      444        1     0.00000    1.32448   25.20876    9.03980
     457      444        1     0.00000    3.80064   24.25241    9.03980
     458      444        1     0.00000    5.72559   22.55978    9.03980
     459      444        2     0.00000    2.88547   25.55595    9.03980
     460      444        2     0.00000    4.13316   22.69887    9.03980
     461      444        1     0.00000    8.28078   18.80586    6.45721
     462      444        1     0.00000   10.75694   19.76186    6.45741
     463      444        1     0.00000   12.68189   21.45484    6.45700
     464      444        2     0.00000    9.84177   18.45833    6.45721
     465      444        2     0.00000   11.08945   21.31575    6.45700
     466      444        1     0.00000    1.32448   27.60844    6.45700
     467      444        1     0.00000    3.80064   28.56514    6.45721
     468      444        1     0.00000    5.72559   30.25741    6.45700
     469      444        2     0.00000    2.88547   27.26125    6.45700
     470      444        2     0.00000    4.13316   30.11868    6.45700
     471      444        1     0.00000    5.72337   34.01169    9.03980
     472      444        1     0.00000    3.24720   33.05534    9.03980
     473      444        1     0.00000    1.32225   31.36236    9.03980
     474      444        2     0.00000    4.16237   34.35887    9.03980
     475      444        2     0.00000    2.91469   31.50144    9.03980
     476      444        1     0.00000   12.67994   25.20841    9.03980
     477      444        1     0.00000   10.20350   24.25241    9.03959
     478      444        1     0.00000    8.27855   22.55978    9.03980
     479      444        2     0.00000   11.11867   25.55595    9.03980
     480      444        2     0.00000    9.87099   22.69887    9.03980
     481      444        1     0.00000    3.52406   22.00696    5.16560
     482      444        1     0.00000   10.48036   30.81024    7.74840
     483      444        1     0.00000    3.52406   22.00731    7.74840
     484      444        1     0.00000   10.48036   22.00731    7.74840
     485      444        1     0.00000    3.52406   30.80989    5.16560
     486      444        1     0.00000   10.48036   30.80953    5.16560
     487      444        1     0.00000    3.52406   30.81024    7.74840
     488      444        1     0.00000   10.48008   22.00661    5.16560
     489      444        1     0.00000    0.04563   23.34536    7.74344
     490      444        1     0.00000    7.00193   32.14793    7.74344
     491      444        1     0.00000    0.04563   29.47219    5.16064
     492      444        1     0.00000    7.00221   20.66927    5.16064
     493      444        1     0.00000    0.04563   23.34536    5.17077
     494      444        1     0.00000    7.00193   32.14793    5.17056
     495      444        1     0.00000    0.04563   29.47184    7.75357
     496      444        1     0.00000    7.00193   20.66927    7.75357
     497      444        2     0.00000    0.04563   22.41330    6.45700
     498      444        2     0.00000    7.00221   31.21588    6.45700
     499      444        2     0.00000    0.04563   30.40425    9.03980
     500      444        2     0.00000    7.00221   21.60132    9.03980
     501      444        2     0.00000    7.00193   19.75376    6.45700
     502      444        2     0.00000    0.04563   28.55669    6.45700
     503      444        2     0.00000    7.00193   33.06343    9.03980
     504      444        2     0.00000    0.04563   24.26086    9.03980
     505      444        1     0.00000   17.70239   17.60550    5.16560
     506      444        1     0.00000   24.65869   26.40842    5.16581
     507      444        1     0.00000   24.12723   17.60585    7.74840
     508      444        1     0.00000   17.17093   26.40877    7.74840
     509      444        1     0.00000   24.12723   17.60550    5.16581
     510      444        1     0.00000   17.17093   26.40842    5.16560
     511      444        1     0.00000   17.70239   17.60585    7.74840
     512      444        1     0.00000   24.65841   26.40877    7.74840
     513      444        1     0.00000   19.63596   18.80551    6.45700
     514      444        1     0.00000   17.16008   19.76221    6.45700
     515      444        1     0.00000   15.23485   21.45449    6.45700
     516      444        2     0.00000   18.07497   18.45833    6.45700
     517      444        2     0.00000   16.82729   21.31575    6.45700
     518      444        1     0.00000   26.59226   27.60844    6.45700
     519      444        1     0.00000   24.11638   28.56514    6.45659
     520      444        1     0.00000   22.19115   30.25777    6.45700
     521      444        2     0.00000   25.03127   27.26125    6.45700
     522      444        2     0.00000   23.78359   30.11868    6.45700
     523      444        1     0.00000   22.19338   34.01204    9.03980
     524      444        1     0.00000   24.66926   33.05534    9.04001
     525      444        1     0.00000   26.59449   31.36271    9.03980
     526      444        2     0.00000   23.75465   34.35922    9.03980
     527      444        2     0.00000   25.00205   31.50144    9.03980
     528      444        1     0.00000   15.23736   25.20876    9.03980
     529      444        1     0.00000   17.71324   24.25241    9.04001
     530      444        1     0.00000   19.63819   22.55943    9.03980
     531      444        2     0.00000   16.79835   25.55595    9.03980
     532      444        2     0.00000   18.04575   22.69852    9.03980
     533      444        1     0.00000   22.19338   18.80551    6.45700
     534      444        1     0.00000   24.66954   19.76221    6.45659
     535      444        1     0.00000   26.59449   21.45449    6.45700
     536      444        2     0.00000   23.75465   18.45833    6.45700
     537      444        2     0.00000   25.00205   21.31575    6.45700
     538      444        1     0.00000   15.23736   27.60844    6.45700
     539      444        1     0.00000   17.71324   28.56514    6.45700
     540      444        1     0.00000   19.63819   30.25777    6.45700
     541      444        2     0.00000   16.79835   27.26125    6.45700
     542      444        2     0.00000   18.04575   30.11868    6.45700
     543      444        1     0.00000   19.63596   34.01169    9.03980
     544      444        1     0.00000   17.16008   33.05534    9.04001
     545      444        1     0.00000   15.23485   31.36306    9.03980
     546      444        2     0.00000   18.07497   34.35887    9.03980
     547      444        2     0.00000   16.82729   31.50180    9.03980
     548      444        1     0.00000   26.59226   25.20876    9.03980
     549      444        1     0.00000   24.11638   24.25241    9.04001
     550      444        1     0.00000   22.19115   22.55978    9.03980
     551      444        2     0.00000   25.03127   25.55630    9.03980
     552      444        2     0.00000   23.78359   22.69852    9.03980
     553      444        1     0.00000   17.43666   22.00731    5.16560
     554      444        1     0.00000   24.39296   30.80989    7.74840
     555      444        1     0.00000   17.43666   22.00731    7.74840
     556      444        1     0.00000   24.39296   22.00696    7.74840
     557      444        1     0.00000   17.43666   30.81024    5.16560
     558      444        1     0.00000   24.39268   30.81059    5.16581
     559      444        1     0.00000   17.43666   30.81024    7.74840
     560      444        1     0.00000   24.39296   22.00766    5.16581
     561      444        1     0.00000   13.95879   23.34536    7.74344
     562      444        1     0.00000   20.91481   32.14828    7.74344
     563      444        1     0.00000   13.95851   29.47219    5.16064
     564      444        1     0.00000   20.91481   20.66927    5.16064
     565      444        1     0.00000   13.95851   23.34536    5.17056
     566      444        1     0.00000   20.91481   32.14828    5.17077
     567      444        1     0.00000   13.95879   29.47219    7.75357
     568      444        1     0.00000   20.91481   20.66892    7.75357
     569      444        2     0.00000   13.95851   22.41295    6.45700
     570      444        2     0.00000   20.91481   31.21623    6.45700
     571      444        2     0.00000   13.95851   30.40425    9.03980
     572      444        2     0.00000   20.91481   21.60132    9.03980
     573      444        2     0.00000   20.91481   19.75376    6.45700
     574      444        2     0.00000   13.95851   28.55669    6.45700
     575      444        2     0.00000   20.91481   33.06379    9.03980
     576      444        2     0.00000   13.95851   24.26051    9.03980
     577      444        1     0.00000    3.78979   -0.00035   10.33120
     578      444        1     0.00000   10.74637    8.80257   10.33141
     579      444        1     0.00000   10.21435    0.00035   12.91421
     580      444        1     0.00000    3.25805    8.80293   12.91400
     581      444        1     0.00000   10.21435   -0.00035   10.33141
     582      444        1     0.00000    3.25805    8.80257   10.33120
     583      444        1     0.00000    3.78979    0.00000   12.91400
     584      444        1     0.00000   10.74609    8.80328   12.91421
     585      444        1     0.00000    5.72337    1.20001   11.62260
     586      444        1     0.00000    3.24720    2.15636   11.62239
     587      444        1     0.00000    1.32225    3.84899   11.62260
     588      444        2     0.00000    4.16237    0.85248   11.62260
     589      444        2     0.00000    2.91469    3.70990   11.62260
     590      444        1     0.00000   12.67966   10.00294   11.62239
     591      444        1     0.00000   10.20350   10.95894   11.62198
     592      444        1     0.00000    8.27855   12.65156   11.62260
     593      444        2     0.00000   11.11867    9.65540   11.62260
     594      444        2     0.00000    9.87099   12.51283   11.62260
     595      444        1     0.00000    8.28078   16.40584   14.20519
     596      444        1     0.00000   10.75694   15.44949   14.20478
     597      444        1     0.00000   12.68189   13.75686   14.20540
     598      444        2     0.00000    9.84177   16.75302   14.20519
     599      444        2     0.00000   11.08945   13.89559   14.20540
     600      444        1     0.00000    1.32448    7.60291   14.20540
     601      444        1     0.00000    3.80064    6.64656   14.20519
     602      444        1     0.00000    5.72559    4.95393   14.20540
     603      444        2     0.00000    2.88575    7.95010   14.20540
     604      444        2     0.00000    4.13316    5.09267   14.20540
     605      444        1     0.00000    8.28078    1.20001   11.62239
     606      444        1     0.00000   10.75694    2.15601   11.62198
     607      444        1     0.00000   12.68189    3.84899   11.62260
     608      444        2     0.00000    9.84177    0.85248   11.62260
     609      444        2     0.00000   11.08945    3.70990   11.62260
     610      444        1     0.00000    1.32448   10.00259   11.62260
     611      444        1     0.00000    3.80064   10.95929   11.62239
     612      444        1     0.00000    5.72559   12.65156   11.62260
     613      444        2     0.00000    2.88547    9.65540   11.62260
     614      444        2     0.00000    4.13316   12.51283   11.62260
     615      444        1     0.00000    5.72337   16.40584   14.20540
     616      444        1     0.00000    3.24748   15.44949   14.20519
     617      444        1     0.00000    1.32225   13.75686   14.20540
     618      444        2     0.00000    4.16237   16.75302   14.20540
     619      444        2     0.00000    2.91469   13.89559   14.20540
     620      444        1     0.00000   12.67966    7.60291   14.20519
     621      444        1     0.00000   10.20350    6.64656   14.20478
     622      444        1     0.00000    8.27855    4.95393   14.20540
     623      444        2     0.00000   11.11867    7.95010   14.20519
     624      444        2     0.00000    9.87099    5.09267   14.20540
     625      444        1     0.00000    3.52406    4.40146   10.33120
     626      444        1     0.00000   10.48036   13.20368   12.91421
     627      444        1     0.00000    3.52406    4.40111   12.91400
     628      444        1     0.00000   10.48008    4.40076   12.91421
     629      444        1     0.00000    3.52406   13.20439   10.33120
     630      444        1     0.00000   10.48008   13.20474   10.33141
     631      444        1     0.00000    3.52406   13.20404   12.91400
     632      444        1     0.00000   10.48036    4.40181   10.33141
     633      444        1     0.00000    0.04563    5.73951   12.90904
     634      444        1     0.00000    7.00193   14.54243   12.90904
     635      444        1     0.00000    0.04563   11.86599   10.32624
     636      444        1     0.00000    7.00193    3.06342   10.32624
     637      444        1     0.00000    0.04563    5.73951   10.33637
     638      444        1     0.00000    7.00193   14.54243   10.33637
     639      444        1     0.00000    0.04591   11.86634   12.91896
     640      444        1     0.00000    7.00221    3.06342   12.91916
     641      444        2     0.00000    0.04591    4.80745   11.62260
     642      444        2     0.00000    7.00221   13.61003   11.62260
     643      444        2     0.00000    0.04591   12.79840   14.20540
     644      444        2     0.00000    7.00221    3.99547   14.20540
     645      444        2     0.00000    7.00221    2.14791   11.62260
     646      444        2     0.00000    0.04563   10.95084   11.62260
     647      444        2     0.00000    7.00221   15.45758   14.20540
     648      444        2     0.00000    0.04591    6.65466   14.20540
     649      444        1     0.00000   17.70239    0.00000   10.33120
     650      444        1     0.00000   24.65841    8.80293   10.33120
     651      444        1     0.00000   24.12723   -0.00070   12.91379
     652      444        1     0.00000   17.17093    8.80257   12.91400
     653      444        1     0.00000   24.12723    0.00000   10.33120
     654      444        1     0.00000   17.17093    8.80293   10.33120
     655      444        1     0.00000   17.70239   -0.00035   12.91400
     656      444        1     0.00000   24.65869    8.80222   12.91379
     657      444        1     0.00000   19.63596    1.19966   11.62281
     658      444        1     0.00000   17.16008    2.15636   11.62281
     659      444        1     0.00000   15.23485    3.84864   11.62260
     660      444        2     0.00000   18.07497    0.85248   11.62260
     661      444        2     0.00000   16.82729    3.70990   11.62260
     662      444        1     0.00000   26.59226   10.00259   11.62281
     663      444        1     0.00000   24.11638   10.95929   11.62322
     664      444        1     0.00000   22.19115   12.65192   11.62260
     665      444        2     0.00000   25.03127    9.65540   11.62281
     666      444        2     0.00000   23.78359   12.51283   11.62281
     667      444        1     0.00000   22.19338   16.40584   14.20561
     668      444        1     0.00000   24.66954   15.44949   14.20623
     669      444        1     0.00000   26.59449   13.75686   14.20540
     670      444        2     0.00000   23.75437   16.75302   14.20561
     671      444        2     0.00000   25.00205   13.89595   14.20561
     672      444        1     0.00000   15.23708    7.60291   14.20540
     673      444        1     0.00000   17.71324    6.64656   14.20561
     674      444        1     0.00000   19.63819    4.95393   14.20540
     675      444        2     0.00000   16.79807    7.95010   14.20540
     676      444        2     0.00000   18.04575    5.09302   14.20540
     677      444        1     0.00000   22.19338    1.19966   11.62281
     678      444        1     0.00000   24.66954    2.15636   11.62322
     679      444        1     0.00000   26.59449    3.84864   11.62260
     680      444        2     0.00000   23.75465    0.85248   11.62281
     681      444        2     0.00000   25.00205    3.70990   11.62281
     682      444        1     0.00000   15.23708   10.00294   11.62260
     683      444        1     0.00000   17.71324   10.95929   11.62281
     684      444        1     0.00000   19.63819   12.65192   11.62260
     685      444        2     0.00000   16.79835    9.65540   11.62260
     686      444        2     0.00000   18.04575   12.51283   11.62260
     687      444        1     0.00000   19.63596   16.40584   14.20540
     688      444        1     0.00000   17.15980   15.44949   14.20561
     689      444        1     0.00000   15.23485   13.75686   14.20540
     690      444        2     0.00000   18.07497   16.75302   14.20540
     691      444        2     0.00000   16.82729   13.89559   14.20540
     692      444        1     0.00000   26.59226    7.60291   14.20561
     693      444        1     0.00000   24.11610    6.64656   14.20623
     694      444        1     0.00000   22.19115    4.95393   14.20540
     695      444        2     0.00000   25.03127    7.95010   14.20561
     696      444        2     0.00000   23.78359    5.09302   14.20561
     697      444        1     0.00000   17.43666    4.40111   10.33120
     698      444        1     0.00000   24.39268   13.20474   12.91379
     699      444        1     0.00000   17.43666    4.40146   12.91400
     700      444        1     0.00000   24.39296    4.40181   12.91379
     701      444        1     0.00000   17.43638   13.20404   10.33120
     702      444        1     0.00000   24.39296   13.20404   10.33120
     703      444        1     0.00000   17.43666   13.20439   12.91400
     704      444        1     0.00000   24.39296    4.40111   10.33120
     705      444        1     0.00000   13.95851    5.73951   12.90904
     706      444        1     0.00000   20.91481   14.54243   12.90904
     707      444        1     0.00000   13.95879   11.86634   10.32624
     708      444        1     0.00000   20.91481    3.06307   10.32624
     709      444        1     0.00000   13.95851    5.73951   10.33637
     710      444        1     0.00000   20.91481   14.54243   10.33616
     711      444        1     0.00000   13.95851   11.86634   12.91916
     712      444        1     0.00000   20.91481    3.06342   12.91896
     713      444        2     0.00000   13.95851    4.80710   11.62260
     714      444        2     0.00000   20.91481   13.61038   11.62260
     715      444        2     0.00000   13.95851   12.79840   14.20540
     716      444        2     0.00000   20.91481    3.99547   14.20540
     717      444        2     0.00000   20.91481    2.14791   11.62260
     718      444        2     0.00000   13.95851   10.95084   11.62260
     719      444        2     0.00000   20.91481   15.45758   14.20540
     720      444        2     0.00000   13.95851    6.65466   14.20540
     721      444        1     0.00000    3.78979   17.60550   10.33120
     722      444        1     0.00000   10.74637   26.40842   10.33141
     723      444        1     0.00000   10.21435   17.60620   12.91421
     724      444        1     0.00000    3.25805   26.40877   12.91400
     725      444        1     0.00000   10.21435   17.60550   10.33141
     726      444        1     0.00000    3.25805   26.40842   10.33120
     727      444        1     0.00000    3.78979   17.60585   12.91400
     728      444        1     0.00000   10.74609   26.40913   12.91421
     729      444        1     0.00000    5.72337   18.80586   11.62260
     730      444        1     0.00000    3.24720   19.76221   11.62239
     731      444        1     0.00000    1.32225   21.45484   11.62260
     732      444        2     0.00000    4.16237   18.45833   11.62260
     733      444        2     0.00000    2.91469   21.31575   11.62260
     734      444        1     0.00000   12.67966   27.60879   11.62239
     735      444        1     0.00000   10.20350   28.56479   11.62198
     736      444        1     0.00000    8.27855   30.25741   11.62260
     737      444        2     0.00000   11.11867   27.26125   11.62260
     738      444        2     0.00000    9.87099   30.11868   11.62260
     739      444        1     0.00000    8.28078   34.01169   14.20519
     740      444        1     0.00000   10.75694   33.05534   14.20478
     741      444        1     0.00000   12.68189   31.36271   14.20540
     742      444        2     0.00000    9.84177   34.35887   14.20519
     743      444        2     0.00000   11.08945   31.50144   14.20540
     744      444        1     0.00000    1.32448   25.20876   14.20540
     745      444        1     0.00000    3.80064   24.25241   14.20519
     746      444        1     0.00000    5.72559   22.55978   14.20540
     747      444        2     0.00000    2.88575   25.55595   14.20540
     748      444        2     0.00000    4.13316   22.69852   14.20540
     749      444        1     0.00000    8.28078   18.80586   11.62239
     750      444        1     0.00000   10.75694   19.76186   11.62198
     751      444        1     0.00000   12.68189   21.45484   11.62260
     752      444        2     0.00000    9.84177   18.45833   11.62260
     753      444        2     0.00000   11.08945   21.31575   11.62260
     754      444        1     0.00000    1.32448   27.60844   11.62260
     755      444        1     0.00000    3.80064   28.56514   11.62239
     756      444        1     0.00000    5.72559   30.25741   11.62260
     757      444        2     0.00000    2.88547   27.26125   11.62260
     758      444        2     0.00000    4.13316   30.11868   11.62260
     759      444        1     0.00000    5.72337   34.01169   14.20540
     760      444        1     0.00000    3.24748   33.05534   14.20519
     761      444        1     0.00000    1.32225   31.36271   14.20540
     762      444        2     0.00000    4.16237   34.35887   14.20540
     763      444        2     0.00000    2.91469   31.50144   14.20540
     764      444        1     0.00000   12.67966   25.20876   14.20519
     765      444        1     0.00000   10.20350   24.25241   14.20478
     766      444        1     0.00000    8.27855   22.55978   14.20540
     767      444        2     0.00000   11.11867   25.55595   14.20519
     768      444        2     0.00000    9.87099   22.69852   14.20540
     769      444        1     0.00000    3.52406   22.00731   10.33120
     770      444        1     0.00000   10.48036   30.80953   12.91421
     771      444        1     0.00000    3.52406   22.00696   12.91400
     772      444        1     0.00000   10.48008   22.00661   12.91421
     773      444        1     0.00000    3.52406   30.81024   10.33120
     774      444        1     0.00000   10.48008   30.81059   10.33141
     775      444        1     0.00000    3.52406   30.80989   12.91400
     776      444        1     0.00000   10.48036   22.00766   10.33141
     777      444        1     0.00000    0.04563   23.34536   12.90904
     778      444        1     0.00000    7.00193   32.14828   12.90904
     779      444        1     0.00000    0.04563   29.47184   10.32624
     780      444        1     0.00000    7.00193   20.66927   10.32624
     781      444        1     0.00000    0.04563   23.34536   10.33637
     782      444        1     0.00000    7.00193   32.14828   10.33637
     783      444        1     0.00000    0.04591   29.47219   12.91896
     784      444        1     0.00000    7.00221   20.66927   12.91916
     785      444        2     0.00000    0.04591   22.41330   11.62260
     786      444        2     0.00000    7.00221   31.21588   11.62260
     787      444        2     0.00000    0.04591   30.40425   14.20540
     788      444        2     0.00000    7.00221   21.60132   14.20540
     789      444        2     0.00000    7.00221   19.75376   11.62260
     790      444        2     0.00000    0.04563   28.55669   11.62260
     791      444        2     0.00000    7.00221   33.06343   14.20540
     792      444        2     0.00000    0.04591   24.26051   14.20540
     793      444        1     0.00000   17.70239   17.60585   10.33120
     794      444        1     0.00000   24.65841   26.40913   10.33120
     795      444        1     0.00000   24.12723   17.60515   12.91379
     796      444        1     0.00000   17.17093   26.40842   12.91400
     797      444        1     0.00000   24.12723   17.60585   10.33120
     798      444        1     0.00000   17.17093   26.40877   10.33120
     799      444        1     0.00000   17.70239   17.60550   12.91400
     800      444        1     0.00000   24.65869   26.40807   12.91379
     801      444        1     0.00000   19.63596   18.80551   11.62281
     802      444        1     0.00000   17.16008   19.76221   11.62281
     803      444        1     0.00000   15.23485   21.45449   11.62260
     804      444        2     0.00000   18.07497   18.45833   11.62260
     805      444        2     0.00000   16.82729   21.31575   11.62260
     806      444        1     0.00000   26.59226   27.60844   11.62281
     807      444        1     0.00000   24.11638   28.56514   11.62322
     808      444        1     0.00000   22.19115   30.25777   11.62260
     809      444        2     0.00000   25.03127   27.26125   11.62281
     810      444        2     0.00000   23.78359   30.11868   11.62281
     811      444        1     0.00000   22.19338   34.01169   14.20561
     812      444        1     0.00000   24.66954   33.05534   14.20623
     813      444        1     0.00000   26.59449   31.36271   14.20540
     814      444        2     0.00000   23.75437   34.35887   14.20561
     815      444        2     0.00000   25.00205   31.50180   14.20561
     816      444        1     0.00000   15.23708   25.20876   14.20540
     817      444        1     0.00000   17.71324   24.25241   14.20561
     818      444        1     0.00000   19.63819   22.55978   14.20540
     819      444        2     0.00000   16.79807   25.55595   14.20540
     820      444        2     0.00000   18.04575   22.69887   14.20540
     821      444        1     0.00000   22.19338   18.80551   11.62281
     822      444        1     0.00000   24.66954   19.76221   11.62322
     823      444        1     0.00000   26.59449   21.45449   11.62260
     824      444        2     0.00000   23.75465   18.45833   11.62281
     825      444        2     0.00000   25.00205   21.31575   11.62281
     826      444        1     0.00000   15.23708   27.60879   11.62260
     827      444        1     0.00000   17.71324   28.56514   11.62281
     828      444        1     0.00000   19.63819   30.25777   11.62260
     829      444        2     0.00000   16.79835   27.26125   11.62260
     830      444        2     0.00000   18.04575   30.11868   11.62260
     831      444        1     0.00000   19.63596   34.01169   14.20540
     832      444        1     0.00000   17.15980   33.05534   14.20561
     833      444        1     0.00000   15.23485   31.36271   14.20540
     834      444        2     0.00000   18.07497   34.35887   14.20540
     835      444        2     0.00000   16.82729   31.50144   14.20540
     836      444        1     0.00000   26.59226   25.20876   14.20561
     837      444        1     0.00000   24.11610   24.25241   14.20623
     838      444        1     0.00000   22.19115   22.55978   14.20540
     839      444        2     0.00000   25.03127   25.55595   14.20561
     840      444        2     0.00000   23.78359   22.69887   14.20561
     841      444        1     0.00000   17.43666   22.00696   10.33120
     842      444        1     0.00000   24.39268   30.81059   12.91379
     843      444        1     0.00000   17.43666   22.00731   12.91400
     844      444        1     0.00000   24.39296   22.00766   12.91379
     845      444        1     0.00000   17.43638   30.80989   10.33120
     846      444        1     0.00000   24.39296   30.80989   10.33120
     847      444        1     0.00000   17.43666   30.81024   12.91400
     848      444        1     0.00000   24.39296   22.00696   10.33120
     849      444        1     0.00000   13.95851   23.34536   12.90904
     850      444        1     0.00000   20.91481   32.14828   12.90904
     851      444        1     0.00000   13.95879   29.47219   10.32624
     852      444        1     0.00000   20.91481   20.66892   10.32624
     853      444        1     0.00000   13.95851   23.34536   10.33637
     854      444        1     0.00000   20.91481   32.14828   10.33616
     855      444        1     0.00000   13.95851   29.47219   12.91916
     856      444        1     0.00000   20.91481   20.66927   12.91896
     857      444        2     0.00000   13.95851   22.41295   11.62260
     858      444        2     0.00000   20.91481   31.21623   11.62260
     859      444        2     0.00000   13.95851   30.40425   14.20540
     860      444        2     0.00000   20.91481   21.60132   14.20540
     861      444        2     0.00000   20.91481   19.75376   11.62260
     862      444        2     0.00000   13.95851   28.55669   11.62260
     863      444        2     0.00000   20.91481   33.06343   14.20540
     864      444        2     0.00000   13.95851   24.26051   14.20540
     865      444        1     0.00000    3.78979   -0.00035   15.49680
     866      444        1     0.00000   10.74609    8.80257   15.49701
     867      444        1     0.00000   10.21463    0.00000   18.07960
     868      444        1     0.00000    3.25833    8.80293   18.07960
     869      444        1     0.00000   10.21463   -0.00035   15.49701
     870      444        1     0.00000    3.25833    8.80257   15.49680
     871      444        1     0.00000    3.78979    0.00000   18.07960
     872      444        1     0.00000   10.74581    8.80293   18.07960
     873      444        1     0.00000    5.72337    1.19966   16.78820
     874      444        1     0.00000    3.24748    2.15636   16.78820
     875      444        1     0.00000    1.32225    3.84864   16.78820
     876      444        2     0.00000    4.16237    0.85248   16.78820
     877      444        2     0.00000    2.91469    3.70990   16.78820
     878      444        1     0.00000   12.67966   10.00259   16.78820
     879      444        1     0.00000   10.20378   10.95929   16.78779
     880      444        1     0.00000    8.27855   12.65192   16.78820
     881      444        2     0.00000   11.11867    9.65540   16.78820
     882      444        2     0.00000    9.87099   12.51283   16.78820
     883      444        1     0.00000    8.28078   16.40619   19.37100
     884      444        1     0.00000   10.75667   15.44949   19.37121
     885      444        1     0.00000   12.68189   13.75686   19.37100
     886      444        2     0.00000    9.84205   16.75337   19.37100
     887      444        2     0.00000   11.08945   13.89559   19.37100
     888      444        1     0.00000    1.32476    7.60291   19.37100
     889      444        1     0.00000    3.80064    6.64656   19.37121
     890      444        1     0.00000    5.72559    4.95358   19.37100
     891      444        2     0.00000    2.88575    7.95010   19.37100
     892      444        2     0.00000    4.13316    5.09267   19.37100
     893      444        1     0.00000    8.28078    1.19966   16.78820
     894      444        1     0.00000   10.75694    2.15636   16.78779
     895      444        1     0.00000   12.68189    3.84864   16.78820
     896      444        2     0.00000    9.84205    0.85248   16.78820
     897      444        2     0.00000   11.08945    3.70990   16.78820
     898      444        1     0.00000    1.32476   10.00259   16.78820
     899      444        1     0.00000    3.80064   10.95929   16.78820
     900      444        1     0.00000    5.72559   12.65192   16.78820
     901      444        2     0.00000    2.88575    9.65540   16.78820
     902      444        2     0.00000    4.13316   12.51283   16.78820
     903      444        1     0.00000    5.72337   16.40584   19.37100
     904      444        1     0.00000    3.24748   15.44949   19.37121
     905      444        1     0.00000    1.32225   13.75721   19.37100
     906      444        2     0.00000    4.16237   16.75302   19.37100
     907      444        2     0.00000    2.91469   13.89595   19.37100
     908      444        1     0.00000   12.67966    7.60291   19.37100
     909      444        1     0.00000   10.20378    6.64656   19.37121
     910      444        1     0.00000    8.27855    4.95393   19.37100
     911      444        2     0.00000   11.11867    7.95045   19.37100
     912      444        2     0.00000    9.87099    5.09267   19.37100
     913      444        1     0.00000    3.52406    4.40146   15.49680
     914      444        1     0.00000   10.48036   13.20404   18.07960
     915      444        1     0.00000    3.52406    4.40146   18.07960
     916      444        1     0.00000   10.48036    4.40111   18.07960
     917      444        1     0.00000    3.52406   13.20439   15.49680
     918      444        1     0.00000   10.48008   13.20474   15.49701
     919      444        1     0.00000    3.52406   13.20439   18.07960
     920      444        1     0.00000   10.48036    4.40181   15.49701
     921      444        1     0.00000    0.04619    5.73951   18.07464
     922      444        1     0.00000    7.00221   14.54243   18.07464
     923      444        1     0.00000    0.04591   11.86634   15.49184
     924      444        1     0.00000    7.00221    3.06342   15.49184
     925      444        1     0.00000    0.04591    5.73951   15.50176
     926      444        1     0.00000    7.00221   14.54243   15.50196
     927      444        1     0.00000    0.04619   11.86634   18.08476
     928      444        1     0.00000    7.00221    3.06307   18.08476
     929      444        2     0.00000    0.04591    4.80710   16.78820
     930      444        2     0.00000    7.00221   13.61038   16.78820
     931      444        2     0.00000    0.04591   12.79840   19.37100
     932      444        2     0.00000    7.00221    3.99547   19.37100
     933      444        2     0.00000    7.00221    2.14791   16.78820
     934      444        2     0.00000    0.04591   10.95084   16.78820
     935      444        2     0.00000    7.00221   15.45794   19.37100
     936      444        2     0.00000    0.04591    6.65466   19.37100
     937      444        1     0.00000   17.70239    0.00000   15.49680
     938      444        1     0.00000   24.65869    8.80328   15.49680
     939      444        1     0.00000   24.12695   -0.00035   18.07960
     940      444        1     0.00000   17.17065    8.80293   18.07960
     941      444        1     0.00000   24.12695    0.00035   15.49680
     942      444        1     0.00000   17.17065    8.80293   15.49680
     943      444        1     0.00000   17.70239    0.00000   18.07960
     944      444        1     0.00000   24.65897    8.80257   18.07960
     945      444        1     0.00000   19.63596    1.20001   16.78820
     946      444        1     0.00000   17.15980    2.15601   16.78820
     947      444        1     0.00000   15.23485    3.84899   16.78820
     948      444        2     0.00000   18.07497    0.85248   16.78820
     949      444        2     0.00000   16.82729    3.70990   16.78820
     950      444        1     0.00000   26.59254   10.00294   16.78841
     951      444        1     0.00000   24.11610   10.95894   16.78861
     952      444        1     0.00000   22.19115   12.65156   16.78820
     953      444        2     0.00000   25.03127    9.65540   16.78841
     954      444        2     0.00000   23.78359   12.51283   16.78820
     955      444        1     0.00000   22.19338   16.40548   19.37100
     956      444        1     0.00000   24.66982   15.44949   19.37079
     957      444        1     0.00000   26.59449   13.75686   19.37100
     958      444        2     0.00000   23.75437   16.75302   19.37100
     959      444        2     0.00000   25.00205   13.89595   19.37100
     960      444        1     0.00000   15.23708    7.60291   19.37100
     961      444        1     0.00000   17.71324    6.64656   19.37100
     962      444        1     0.00000   19.63819    4.95393   19.37100
     963      444        2     0.00000   16.79807    7.95010   19.37100
     964      444        2     0.00000   18.04575    5.09302   19.37100
     965      444        1     0.00000   22.19338    1.20001   16.78841
     966      444        1     0.00000   24.66954    2.15601   16.78861
     967      444        1     0.00000   26.59449    3.84899   16.78820
     968      444        2     0.00000   23.75437    0.85248   16.78841
     969      444        2     0.00000   25.00205    3.70990   16.78820
     970      444        1     0.00000   15.23708   10.00259   16.78820
     971      444        1     0.00000   17.71324   10.95929   16.78841
     972      444        1     0.00000   19.63819   12.65156   16.78820
     973      444        2     0.00000   16.79807    9.65540   16.78820
     974      444        2     0.00000   18.04575   12.51283   16.78820
     975      444        1     0.00000   19.63596   16.40584   19.37100
     976      444        1     0.00000   17.15980   15.44949   19.37100
     977      444        1     0.00000   15.23485   13.75651   19.37100
     978      444        2     0.00000   18.07497   16.75302   19.37100
     979      444        2     0.00000   16.82729   13.89559   19.37100
     980      444        1     0.00000   26.59254    7.60256   19.37100
     981      444        1     0.00000   24.11610    6.64656   19.37079
     982      444        1     0.00000   22.19115    4.95393   19.37100
     983      444        2     0.00000   25.03127    7.95010   19.37100
     984      444        2     0.00000   23.78359    5.09302   19.37100
     985      444        1     0.00000   17.43666    4.40111   15.49680
     986      444        1     0.00000   24.39296   13.20439   18.07960
     987      444        1     0.00000   17.43666    4.40146   18.07960
     988      444        1     0.00000   24.39296    4.40146   18.07960
     989      444        1     0.00000   17.43666   13.20404   15.49680
     990      444        1     0.00000   24.39296   13.20368   15.49680
     991      444        1     0.00000   17.43666   13.20439   18.07960
     992      444        1     0.00000   24.39268    4.40076   15.49680
     993      444        1     0.00000   13.95823    5.73951   18.07464
     994      444        1     0.00000   20.91453   14.54208   18.07464
     995      444        1     0.00000   13.95823   11.86634   15.49184
     996      444        1     0.00000   20.91481    3.06342   15.49184
     997      444        1     0.00000   13.95823    5.73951   15.50196
     998      444        1     0.00000   20.91453   14.54208   15.50176
     999      444        1     0.00000   13.95823   11.86599   18.08476
    1000      444        1     0.00000   20.91453    3.06342   18.08476
    1001      444        2     0.00000   13.95823    4.80745   16.78820
    1002      444        2     0.00000   20.91481   13.61003   16.78820
    1003      444        2     0.00000   13.95823   12.79840   19.37100
    1004      444        2     0.00000   20.91481    3.99547   19.37100
    1005      444        2     0.00000   20.91453    2.14791   16.78820
    1006      444        2     0.00000   13.95823   10.95084   16.78820
    1007      444        2     0.00000   20.91453   15.45758   19.37100
    1008      444        2     0.00000   13.95823    6.65501   19.37100
    1009      444        1     0.00000    3.78979   17.60550   15.49680
    1010      444        1     0.00000   10.74609   26.40842   15.49701
    1011      444        1     0.00000   10.21463   17.60585   18.07960
    1012      444        1     0.00000    3.25833   26.40877   18.07960
    1013      444        1     0.00000   10.21463   17.60550   15.49701
    1014      444        1     0.00000    3.25833   26.40842   15.49680
    1015      444        1     0.00000    3.78979   17.60585   18.07960
    1016      444        1     0.00000   10.74581   26.40877   18.07960
    1017      444        1     0.00000    5.72337   18.80551   16.78820
    1018      444        1     0.00000    3.24748   19.76221   16.78820
    1019      444        1     0.00000    1.32225   21.45449   16.78820
    1020      444        2     0.00000    4.16237   18.45833   16.78820
    1021      444        2     0.00000    2.91469   21.31575   16.78820
    1022      444        1     0.00000   12.67966   27.60844   16.78820
    1023      444        1     0.00000   10.20378   28.56514   16.78779
    1024      444        1     0.00000    8.27855   30.25777   16.78820
    1025      444        2     0.00000   11.11867   27.26125   16.78820
    1026      444        2     0.00000    9.87099   30.11868   16.78820
    1027      444        1     0.00000    8.28078   34.01204   19.37100
    1028      444        1     0.00000   10.75667   33.05534   19.37121
    1029      444        1     0.00000   12.68189   31.36271   19.37100
    1030      444        2     0.00000    9.84205   34.35922   19.37100
    1031      444        2     0.00000   11.08945   31.50144   19.37100
    1032      444        1     0.00000    1.32476   25.20876   19.37100
    1033      444        1     0.00000    3.80064   24.25241   19.37121
    1034      444        1     0.00000    5.72559   22.55943   19.37100
    1035      444        2     0.00000    2.88575   25.55595   19.37100
    1036      444        2     0.00000    4.13316   22.69852   19.37100
    1037      444        1     0.00000    8.28078   18.80551   16.78820
    1038      444        1     0.00000   10.75694   19.76221   16.78779
    1039      444        1     0.00000   12.68189   21.45449   16.78820
    1040      444        2     0.00000    9.84205   18.45833   16.78820
    1041      444        2     0.00000   11.08945   21.31575   16.78820
    1042      444        1     0.00000    1.32476   27.60844   16.78820
    1043      444        1     0.00000    3.80064   28.56514   16.78820
    1044      444        1     0.00000    5.72559   30.25777   16.78820
    1045      444        2     0.00000    2.88575   27.26125   16.78820
    1046      444        2     0.00000    4.13316   30.11868   16.78820
    1047      444        1     0.00000    5.72337   34.01169   19.37100
    1048      444        1     0.00000    3.24748   33.05534   19.37121
    1049      444        1     0.00000    1.32225   31.36306   19.37100
    1050      444        2     0.00000    4.16237   34.35887   19.37100
    1051      444        2     0.00000    2.91469   31.50180   19.37100
    1052      444        1     0.00000   12.67966   25.20876   19.37100
    1053      444        1     0.00000   10.20378   24.25241   19.37121
    1054      444        1     0.00000    8.27855   22.55978   19.37100
    1055      444        2     0.00000   11.11867   25.55630   19.37100
    1056      444        2     0.00000    9.87099   22.69852   19.37100
    1057      444        1     0.00000    3.52406   22.00731   15.49680
    1058      444        1     0.00000   10.48036   30.80989   18.07960
    1059      444        1     0.00000    3.52406   22.00731   18.07960
    1060      444        1     0.00000   10.48036   22.00696   18.07960
    1061      444        1     0.00000    3.52406   30.81024   15.49680
    1062      444        1     0.00000   10.48008   30.81059   15.49701
    1063      444        1     0.00000    3.52406   30.81024   18.07960
    1064      444        1     0.00000   10.48036   22.00766   15.49701
    1065      444        1     0.00000    0.04619   23.34536   18.07464
    1066      444        1     0.00000    7.00221   32.14828   18.07464
    1067      444        1     0.00000    0.04591   29.47219   15.49184
    1068      444        1     0.00000    7.00221   20.66927   15.49184
    1069      444        1     0.00000    0.04591   23.34536   15.50176
    1070      444        1     0.00000    7.00221   32.14828   15.50196
    1071      444        1     0.00000    0.04619   29.47219   18.08476
    1072      444        1     0.00000    7.00221   20.66892   18.08476
    1073      444        2     0.00000    0.04591   22.41295   16.78820
    1074      444        2     0.00000    7.00221   31.21623   16.78820
    1075      444        2     0.00000    0.04591   30.40425   19.37100
    1076      444        2     0.00000    7.00221   21.60132   19.37100
    1077      444        2     0.00000    7.00221   19.75376   16.78820
    1078      444        2     0.00000    0.04591   28.55669   16.78820
    1079      444        2     0.00000    7.00221   33.06379   19.37100
    1080      444        2     0.00000    0.04591   24.26051   19.37100
    1081      444        1     0.00000   17.70239   17.60585   15.49680
    1082      444        1     0.00000   24.65869   26.40913   15.49680
    1083      444        1     0.00000   24.12695   17.60550   18.07960
    1084      444        1     0.00000   17.17065   26.40877   18.07960
    1085      444        1     0.00000   24.12695   17.60620   15.49680
    1086      444        1     0.00000   17.17065   26.40877   15.49680
    1087      444        1     0.00000   17.70239   17.60585   18.07960
    1088      444        1     0.00000   24.65897   26.40842   18.07960
    1089      444        1     0.00000   19.63596   18.80586   16.78820
    1090      444        1     0.00000   17.15980   19.76186   16.78820
    1091      444        1     0.00000   15.23485   21.45484   16.78820
    1092      444        2     0.00000   18.07497   18.45833   16.78820
    1093      444        2     0.00000   16.82729   21.31575   16.78820
    1094      444        1     0.00000   26.59254   27.60879   16.78841
    1095      444        1     0.00000   24.11610   28.56479   16.78861
    1096      444        1     0.00000   22.19115   30.25741   16.78820
    1097      444        2     0.00000   25.03127   27.26125   16.78841
    1098      444        2     0.00000   23.78359   30.11868   16.78820
    1099      444        1     0.00000   22.19338   34.01133   19.37100
    1100      444        1     0.00000   24.66982   33.05534   19.37079
    1101      444        1     0.00000   26.59449   31.36271   19.37100
    1102      444        2     0.00000   23.75437   34.35887   19.37100
    1103      444        2     0.00000   25.00205   31.50180   19.37100
    1104      444        1     0.00000   15.23708   25.20876   19.37100
    1105      444        1     0.00000   17.71324   24.25241   19.37100
    1106      444        1     0.00000   19.63819   22.55978   19.37100
    1107      444        2     0.00000   16.79807   25.55595   19.37100
    1108      444        2     0.00000   18.04575   22.69887   19.37100
    1109      444        1     0.00000   22.19338   18.80586   16.78841
    1110      444        1     0.00000   24.66954   19.76186   16.78861
    1111      444        1     0.00000   26.59449   21.45484   16.78820
    1112      444        2     0.00000   23.75437   18.45833   16.78841
    1113      444        2     0.00000   25.00205   21.31575   16.78820
    1114      444        1     0.00000   15.23708   27.60844   16.78820
    1115      444        1     0.00000   17.71324   28.56514   16.78841
    1116      444        1     0.00000   19.63819   30.25741   16.78820
    1117      444        2     0.00000   16.79807   27.26125   16.78820
    1118      444        2     0.00000   18.04575   30.11868   16.78820
    1119      444        1     0.00000   19.63596   34.01169   19.37100
    1120      444        1     0.00000   17.15980   33.05534   19.37100
    1121      444        1     0.00000   15.23485   31.36236   19.37100
    1122      444        2     0.00000   18.07497   34.35887   19.37100
    1123      444        2     0.00000   16.82729   31.50144   19.37100
    1124      444        1     0.00000   26.59254   25.20841   19.37100
    1125      444        1     0.00000   24.11610   24.25241   19.37079
    1126      444        1     0.00000   22.19115   22.55978   19.37100
    1127      444        2     0.00000   25.03127   25.55595   19.37100
    1128      444        2     0.00000   23.78359   22.69887   19.37100
    1129      444        1     0.00000   17.43666   22.00696   15.49680
    1130      444        1     0.00000   24.39296   30.81024   18.07960
    1131      444        1     0.00000   17.43666   22.00731   18.07960
    1132      444        1     0.00000   24.39296   22.00731   18.07960
    1133      444        1     0.00000   17.43666   30.80989   15.49680
    1134      444        1     0.00000   24.39296   30.80953   15.49680
    1135      444        1     0.00000   17.43666   30.81024   18.07960
    1136      444        1     0.00000   24.39268   22.00661   15.49680
    1137      444        1     0.00000   13.95823   23.34536   18.07464
    1138      444        1     0.00000   20.91453   32.14793   18.07464
    1139      444        1     0.00000   13.95823   29.47219   15.49184
    1140      444        1     0.00000   20.91481   20.66927   15.49184
    1141      444        1     0.00000   13.95823   23.34536   15.50196
    1142      444        1     0.00000   20.91453   32.14793   15.50176
    1143      444        1     0.00000   13.95823   29.47184   18.08476
    1144      444        1     0.00000   20.91453   20.66927   18.08476
    1145      444        2     0.00000   13.95823   22.41330   16.78820
    1146      444        2     0.00000   20.91481   31.21588   16.78820
    1147      444        2     0.00000   13.95823   30.40425   19.37100
    1148      444        2     0.00000   20.91481   21.60132   19.37100
    1149      444        2     0.00000   20.91453   19.75376   16.78820
    1150      444        2     0.00000   13.95823   28.55669   16.78820
    1151      444        2     0.00000   20.91453   33.06343   19.37100
    1152      444        2     0.00000   13.95823   24.26086   19.37100
1153 2 3 0.17470000 0.00000 2.12300 4.829
1154 2 4 -0.22970000 0.00000 1.10600 4.465
1155 2 5 -0.09740000 0.00000 0.69200 3.094
1156 2 6 0.01730000 0.00000 -0.02000 5.235
1157 2 7 0.19270000 0.00000 -0.11600 6.313
1158 2 8 -0.64230000 0.00000 -1.11100 4.384
1159 2 9 0.44150000 0.00000 -2.07500 4.688
1160 2 10 0.12020000 0.00000 -0.71000 3.071
1161 2 11 -0.09210000 0.00000 1.40700 1.904
1162 2 12 0.14840000 0.00000 2.48700 1.913
1163 2 13 -0.16820000 0.00000 -1.40000 1.868
1164 2 14 0.14340000 0.00000 -2.48000 1.855
1165 2 15 -0.18250000 0.00000 0.71800 0.684
1166 2 16 0.14710000 0.00000 1.26900 -0.245
1167 2 17 -0.12110000 0.00000 -0.68200 0.667
1168 2 18 0.14800000 0.00000 -1.20900 -0.276
1169 2 3 0.17470000 6.9565 10.9259 4.3755
1170 2 4 -0.22970000 6.9565 9.90892 4.0115
1171 2 5 -0.09740000 6.9565 9.49493 2.6405
1172 2 6 0.01730000 6.9565 8.78293 4.7815
1173 2 7 0.19270000 6.9565 8.68693 5.8595
1174 2 8 -0.64230000 6.9565 7.69193 3.9305
1175 2 9 0.44150000 6.9565 6.72792 4.2345
1176 2 10 0.12020000 6.9565 8.09293 2.6175
1177 2 11 -0.09210000 6.9565 10.2099 1.4505
1178 2 12 0.14840000 6.9565 11.2899 1.4595
1179 2 13 -0.16820000 6.9565 7.40292 1.4145
1180 2 14 0.14340000 6.9565 6.32292 1.4015
1181 2 15 -0.18250000 6.9565 9.52093 0.2305
1182 2 16 0.14710000 6.9565 10.0719 -0.6985
1183 2 17 -0.12110000 6.9565 8.12092 0.2135
1184 2 18 0.14800000 6.9565 7.59393 -0.7295
1185 2 3 0.17470000 6.9565 -6.67992 2.642
1186 2 4 -0.22970000 6.9565 -7.69693 2.278
1187 2 5 -0.09740000 6.9565 -8.11092 0.907
1188 2 6 0.01730000 6.9565 -8.82292 3.048
1189 2 7 0.19270000 6.9565 -8.91892 4.126
1190 2 8 -0.64230000 6.9565 -9.91393 2.197
1191 2 9 0.44150000 6.9565 -10.8779 2.501
1192 2 10 0.12020000 6.9565 -9.51292 0.884
1193 2 11 -0.09210000 6.9565 -7.39593 -0.283
1194 2 12 0.14840000 6.9565 -6.31593 -0.274
1195 2 13 -0.16820000 6.9565 -10.2029 -0.319
1196 2 14 0.14340000 6.9565 -11.2829 -0.332
1197 2 15 -0.18250000 6.9565 -8.08493 -1.503
1198 2 16 0.14710000 6.9565 -7.53392 -2.432
1199 2 17 -0.12110000 6.9565 -9.48493 -1.52
1200 2 18 0.14800000 6.9565 -10.0119 -2.463
1201 2 3 0.17470000 -6.9565 10.9259 0.937
1202 2 4 -0.22970000 -6.9565 9.90892 0.573
1203 2 5 -0.09740000 -6.9565 9.49493 -0.798
1204 2 6 0.01730000 -6.9565 8.78293 1.343
1205 2 7 0.19270000 -6.9565 8.68693 2.421
1206 2 8 -0.64230000 -6.9565 7.69193 0.492
1207 2 9 0.44150000 -6.9565 6.72792 0.796
1208 2 10 0.12020000 -6.9565 8.09293 -0.821
1209 2 11 -0.09210000 -6.9565 10.2099 -1.988
1210 2 12 0.14840000 -6.9565 11.2899 -1.979
1211 2 13 -0.16820000 -6.9565 7.40292 -2.024
1212 2 14 0.14340000 -6.9565 6.32292 -2.037
1213 2 15 -0.18250000 -6.9565 9.52093 -3.208
1214 2 16 0.14710000 -6.9565 10.0719 -4.137
1215 2 17 -0.12110000 -6.9565 8.12092 -3.225
1216 2 18 0.14800000 -6.9565 7.59393 -4.168
1217 2 3 0.17470000 -6.9565 -6.67992 1.479
1218 2 4 -0.22970000 -6.9565 -7.69693 1.115
1219 2 5 -0.09740000 -6.9565 -8.11092 -0.256
1220 2 6 0.01730000 -6.9565 -8.82292 1.885
1221 2 7 0.19270000 -6.9565 -8.91892 2.963
1222 2 8 -0.64230000 -6.9565 -9.91393 1.034
1223 2 9 0.44150000 -6.9565 -10.8779 1.338
1224 2 10 0.12020000 -6.9565 -9.51292 -0.279
1225 2 11 -0.09210000 -6.9565 -7.39593 -1.446
1226 2 12 0.14840000 -6.9565 -6.31593 -1.437
1227 2 13 -0.16820000 -6.9565 -10.2029 -1.482
1228 2 14 0.14340000 -6.9565 -11.2829 -1.495
1229 2 15 -0.18250000 -6.9565 -8.08493 -2.666
1230 2 16 0.14710000 -6.9565 -7.53392 -3.595
1231 2 17 -0.12110000 -6.9565 -9.48493 -2.683
1232 2 18 0.14800000 -6.9565 -10.0119 -3.626

Bonds

       1        1        1       12
       2        1        1     1050
       3        1        2       17
       4        1        2      911
       5        1        3       32
       6        1        3      166
       7        1        4       27
       8        1        4       37
       9        1        5       32
      10        1        5     1030
      11        1        6       37
      12        1        6      891
      13        1        7       12
      14        1        7      186
      15        1        8       17
      16        1        8       47
      17        1        9       12
      18        1        9       69
      19        1       10       12
      20        1       10       13
      21        1       11       13
      22        1       11       65
      23        1       13       49
      24        1       13       51
      25        1       14       17
      26        1       14      142
      27        1       15       17
      28        1       15       18
      29        1       16       18
      30        1       16       66
      31        1       18       50
      32        1       18       54
      33        1       19       22
      34        1       19       71
      35        1       20       22
      36        1       20       23
      37        1       21       23
      38        1       21      139
      39        1       22      147
      40        1       22      437
      41        1       23       50
      42        1       23      342
      43        1       24       27
      44        1       24       72
      45        1       25       27
      46        1       25       28
      47        1       26       28
      48        1       26       68
      49        1       27      294
      50        1       28       51
      51        1       28      337
      52        1       29       32
      53        1       29       69
      54        1       30       32
      55        1       30       33
      56        1       31       33
      57        1       31      137
      58        1       33       52
      59        1       33       56
      60        1       34       37
      61        1       34       70
      62        1       35       37
      63        1       35       38
      64        1       36       38
      65        1       36       66
      66        1       38       53
      67        1       38       55
      68        1       39       42
      69        1       39       71
      70        1       40       42
      71        1       40       43
      72        1       41       43
      73        1       41       67
      74        1       42      151
      75        1       42      433
      76        1       43       55
      77        1       43      341
      78        1       44       47
      79        1       44      144
      80        1       45       47
      81        1       45       48
      82        1       46       48
      83        1       46       68
      84        1       47      290
      85        1       48       52
      86        1       48      344
      87        1       49      892
      88        1       53      907
      89        1       54      887
      90        1       56      912
      91        1       57       65
      92        1       57       72
      93        1       58       66
      94        1       58       71
      95        1       59       70
      96        1       59      931
      97        1       60       69
      98        1       60      932
      99        1       61       65
     100        1       61      936
     101        1       62       66
     102        1       62      935
     103        1       63       67
     104        1       63       70
     105        1       64       68
     106        1       64       69
     107        1       65      103
     108        1       67       93
     109        1       67      347
     110        1       68      348
     111        1       70       86
     112        1       71      350
     113        1       72      116
     114        1       72      349
     115        1       73       84
     116        1       73     1122
     117        1       74       89
     118        1       74      983
     119        1       75      104
     120        1       75      238
     121        1       76       99
     122        1       76      109
     123        1       77      104
     124        1       77     1102
     125        1       78      109
     126        1       78      963
     127        1       79       84
     128        1       79      258
     129        1       80       89
     130        1       80      119
     131        1       81       84
     132        1       81      141
     133        1       82       84
     134        1       82       85
     135        1       83       85
     136        1       83      137
     137        1       85      121
     138        1       85      123
     139        1       86       89
     140        1       87       89
     141        1       87       90
     142        1       88       90
     143        1       88      138
     144        1       90      122
     145        1       90      126
     146        1       91       94
     147        1       91      143
     148        1       92       94
     149        1       92       95
     150        1       93       95
     151        1       94      219
     152        1       94      509
     153        1       95      122
     154        1       95      414
     155        1       96       99
     156        1       96      144
     157        1       97       99
     158        1       97      100
     159        1       98      100
     160        1       98      140
     161        1       99      366
     162        1      100      123
     163        1      100      409
     164        1      101      104
     165        1      101      141
     166        1      102      104
     167        1      102      105
     168        1      103      105
     169        1      105      124
     170        1      105      128
     171        1      106      109
     172        1      106      142
     173        1      107      109
     174        1      107      110
     175        1      108      110
     176        1      108      138
     177        1      110      125
     178        1      110      127
     179        1      111      114
     180        1      111      143
     181        1      112      114
     182        1      112      115
     183        1      113      115
     184        1      113      139
     185        1      114      223
     186        1      114      505
     187        1      115      127
     188        1      115      413
     189        1      116      119
     190        1      117      119
     191        1      117      120
     192        1      118      120
     193        1      118      140
     194        1      119      362
     195        1      120      124
     196        1      120      416
     197        1      121      964
     198        1      125      979
     199        1      126      959
     200        1      128      984
     201        1      129      137
     202        1      129      144
     203        1      130      138
     204        1      130      143
     205        1      131      142
     206        1      131     1003
     207        1      132      141
     208        1      132     1004
     209        1      133      137
     210        1      133     1008
     211        1      134      138
     212        1      134     1007
     213        1      135      139
     214        1      135      142
     215        1      136      140
     216        1      136      141
     217        1      139      419
     218        1      140      420
     219        1      143      422
     220        1      144      421
     221        1      145      156
     222        1      145      906
     223        1      146      161
     224        1      146     1055
     225        1      147      176
     226        1      148      171
     227        1      148      181
     228        1      149      176
     229        1      149      886
     230        1      150      181
     231        1      150     1035
     232        1      151      156
     233        1      152      161
     234        1      152      191
     235        1      153      156
     236        1      153      213
     237        1      154      156
     238        1      154      157
     239        1      155      157
     240        1      155      209
     241        1      157      193
     242        1      157      195
     243        1      158      161
     244        1      158      286
     245        1      159      161
     246        1      159      162
     247        1      160      162
     248        1      160      210
     249        1      162      194
     250        1      162      198
     251        1      163      166
     252        1      163      215
     253        1      164      166
     254        1      164      167
     255        1      165      167
     256        1      165      283
     257        1      166      293
     258        1      167      194
     259        1      167      486
     260        1      168      171
     261        1      168      216
     262        1      169      171
     263        1      169      172
     264        1      170      172
     265        1      170      212
     266        1      171      438
     267        1      172      195
     268        1      172      481
     269        1      173      176
     270        1      173      213
     271        1      174      176
     272        1      174      177
     273        1      175      177
     274        1      175      281
     275        1      177      196
     276        1      177      200
     277        1      178      181
     278        1      178      214
     279        1      179      181
     280        1      179      182
     281        1      180      182
     282        1      180      210
     283        1      182      197
     284        1      182      199
     285        1      183      186
     286        1      183      215
     287        1      184      186
     288        1      184      187
     289        1      185      187
     290        1      185      211
     291        1      186      289
     292        1      187      199
     293        1      187      485
     294        1      188      191
     295        1      188      288
     296        1      189      191
     297        1      189      192
     298        1      190      192
     299        1      190      212
     300        1      191      434
     301        1      192      196
     302        1      192      488
     303        1      193     1036
     304        1      197     1051
     305        1      198     1031
     306        1      200     1056
     307        1      201      209
     308        1      201      216
     309        1      202      210
     310        1      202      215
     311        1      203      214
     312        1      203     1075
     313        1      204      213
     314        1      204     1076
     315        1      205      209
     316        1      205     1080
     317        1      206      210
     318        1      206     1079
     319        1      207      211
     320        1      207      214
     321        1      208      212
     322        1      208      213
     323        1      209      247
     324        1      211      237
     325        1      211      491
     326        1      212      492
     327        1      214      230
     328        1      215      494
     329        1      216      260
     330        1      216      493
     331        1      217      228
     332        1      217      978
     333        1      218      233
     334        1      218     1127
     335        1      219      248
     336        1      220      243
     337        1      220      253
     338        1      221      248
     339        1      221      958
     340        1      222      253
     341        1      222     1107
     342        1      223      228
     343        1      224      233
     344        1      224      263
     345        1      225      228
     346        1      225      285
     347        1      226      228
     348        1      226      229
     349        1      227      229
     350        1      227      281
     351        1      229      265
     352        1      229      267
     353        1      230      233
     354        1      231      233
     355        1      231      234
     356        1      232      234
     357        1      232      282
     358        1      234      266
     359        1      234      270
     360        1      235      238
     361        1      235      287
     362        1      236      238
     363        1      236      239
     364        1      237      239
     365        1      238      365
     366        1      239      266
     367        1      239      558
     368        1      240      243
     369        1      240      288
     370        1      241      243
     371        1      241      244
     372        1      242      244
     373        1      242      284
     374        1      243      510
     375        1      244      267
     376        1      244      553
     377        1      245      248
     378        1      245      285
     379        1      246      248
     380        1      246      249
     381        1      247      249
     382        1      249      268
     383        1      249      272
     384        1      250      253
     385        1      250      286
     386        1      251      253
     387        1      251      254
     388        1      252      254
     389        1      252      282
     390        1      254      269
     391        1      254      271
     392        1      255      258
     393        1      255      287
     394        1      256      258
     395        1      256      259
     396        1      257      259
     397        1      257      283
     398        1      258      361
     399        1      259      271
     400        1      259      557
     401        1      260      263
     402        1      261      263
     403        1      261      264
     404        1      262      264
     405        1      262      284
     406        1      263      506
     407        1      264      268
     408        1      264      560
     409        1      265     1108
     410        1      269     1123
     411        1      270     1103
     412        1      272     1128
     413        1      273      281
     414        1      273      288
     415        1      274      282
     416        1      274      287
     417        1      275      286
     418        1      275     1147
     419        1      276      285
     420        1      276     1148
     421        1      277      281
     422        1      277     1152
     423        1      278      282
     424        1      278     1151
     425        1      279      283
     426        1      279      286
     427        1      280      284
     428        1      280      285
     429        1      283      563
     430        1      284      564
     431        1      287      566
     432        1      288      565
     433        1      289      300
     434        1      290      305
     435        1      291      320
     436        1      291      454
     437        1      292      315
     438        1      292      325
     439        1      293      320
     440        1      294      325
     441        1      295      300
     442        1      295      474
     443        1      296      305
     444        1      296      335
     445        1      297      300
     446        1      297      357
     447        1      298      300
     448        1      298      301
     449        1      299      301
     450        1      299      353
     451        1      301      337
     452        1      301      339
     453        1      302      305
     454        1      302      430
     455        1      303      305
     456        1      303      306
     457        1      304      306
     458        1      304      354
     459        1      306      338
     460        1      306      342
     461        1      307      310
     462        1      307      359
     463        1      308      310
     464        1      308      311
     465        1      309      311
     466        1      309      427
     467        1      310      435
     468        1      310      725
     469        1      311      338
     470        1      311      630
     471        1      312      315
     472        1      312      360
     473        1      313      315
     474        1      313      316
     475        1      314      316
     476        1      314      356
     477        1      315      582
     478        1      316      339
     479        1      316      625
     480        1      317      320
     481        1      317      357
     482        1      318      320
     483        1      318      321
     484        1      319      321
     485        1      319      425
     486        1      321      340
     487        1      321      344
     488        1      322      325
     489        1      322      358
     490        1      323      325
     491        1      323      326
     492        1      324      326
     493        1      324      354
     494        1      326      341
     495        1      326      343
     496        1      327      330
     497        1      327      359
     498        1      328      330
     499        1      328      331
     500        1      329      331
     501        1      329      355
     502        1      330      439
     503        1      330      721
     504        1      331      343
     505        1      331      629
     506        1      332      335
     507        1      332      432
     508        1      333      335
     509        1      333      336
     510        1      334      336
     511        1      334      356
     512        1      335      578
     513        1      336      340
     514        1      336      632
     515        1      345      353
     516        1      345      360
     517        1      346      354
     518        1      346      359
     519        1      347      358
     520        1      348      357
     521        1      349      353
     522        1      350      354
     523        1      351      355
     524        1      351      358
     525        1      352      356
     526        1      352      357
     527        1      353      391
     528        1      355      381
     529        1      355      635
     530        1      356      636
     531        1      358      374
     532        1      359      638
     533        1      360      404
     534        1      360      637
     535        1      361      372
     536        1      362      377
     537        1      363      392
     538        1      363      526
     539        1      364      387
     540        1      364      397
     541        1      365      392
     542        1      366      397
     543        1      367      372
     544        1      367      546
     545        1      368      377
     546        1      368      407
     547        1      369      372
     548        1      369      429
     549        1      370      372
     550        1      370      373
     551        1      371      373
     552        1      371      425
     553        1      373      409
     554        1      373      411
     555        1      374      377
     556        1      375      377
     557        1      375      378
     558        1      376      378
     559        1      376      426
     560        1      378      410
     561        1      378      414
     562        1      379      382
     563        1      379      431
     564        1      380      382
     565        1      380      383
     566        1      381      383
     567        1      382      507
     568        1      382      797
     569        1      383      410
     570        1      383      702
     571        1      384      387
     572        1      384      432
     573        1      385      387
     574        1      385      388
     575        1      386      388
     576        1      386      428
     577        1      387      654
     578        1      388      411
     579        1      388      697
     580        1      389      392
     581        1      389      429
     582        1      390      392
     583        1      390      393
     584        1      391      393
     585        1      393      412
     586        1      393      416
     587        1      394      397
     588        1      394      430
     589        1      395      397
     590        1      395      398
     591        1      396      398
     592        1      396      426
     593        1      398      413
     594        1      398      415
     595        1      399      402
     596        1      399      431
     597        1      400      402
     598        1      400      403
     599        1      401      403
     600        1      401      427
     601        1      402      511
     602        1      402      793
     603        1      403      415
     604        1      403      701
     605        1      404      407
     606        1      405      407
     607        1      405      408
     608        1      406      408
     609        1      406      428
     610        1      407      650
     611        1      408      412
     612        1      408      704
     613        1      417      425
     614        1      417      432
     615        1      418      426
     616        1      418      431
     617        1      419      430
     618        1      420      429
     619        1      421      425
     620        1      422      426
     621        1      423      427
     622        1      423      430
     623        1      424      428
     624        1      424      429
     625        1      427      707
     626        1      428      708
     627        1      431      710
     628        1      432      709
     629        1      433      444
     630        1      434      449
     631        1      435      464
     632        1      436      459
     633        1      436      469
     634        1      437      464
     635        1      438      469
     636        1      439      444
     637        1      440      449
     638        1      440      479
     639        1      441      444
     640        1      441      501
     641        1      442      444
     642        1      442      445
     643        1      443      445
     644        1      443      497
     645        1      445      481
     646        1      445      483
     647        1      446      449
     648        1      446      574
     649        1      447      449
     650        1      447      450
     651        1      448      450
     652        1      448      498
     653        1      450      482
     654        1      450      486
     655        1      451      454
     656        1      451      503
     657        1      452      454
     658        1      452      455
     659        1      453      455
     660        1      453      571
     661        1      454      581
     662        1      455      482
     663        1      455      774
     664        1      456      459
     665        1      456      504
     666        1      457      459
     667        1      457      460
     668        1      458      460
     669        1      458      500
     670        1      459      726
     671        1      460      483
     672        1      460      769
     673        1      461      464
     674        1      461      501
     675        1      462      464
     676        1      462      465
     677        1      463      465
     678        1      463      569
     679        1      465      484
     680        1      465      488
     681        1      466      469
     682        1      466      502
     683        1      467      469
     684        1      467      470
     685        1      468      470
     686        1      468      498
     687        1      470      485
     688        1      470      487
     689        1      471      474
     690        1      471      503
     691        1      472      474
     692        1      472      475
     693        1      473      475
     694        1      473      499
     695        1      474      577
     696        1      475      487
     697        1      475      773
     698        1      476      479
     699        1      476      576
     700        1      477      479
     701        1      477      480
     702        1      478      480
     703        1      478      500
     704        1      479      722
     705        1      480      484
     706        1      480      776
     707        1      489      497
     708        1      489      504
     709        1      490      498
     710        1      490      503
     711        1      491      502
     712        1      492      501
     713        1      493      497
     714        1      494      498
     715        1      495      499
     716        1      495      502
     717        1      496      500
     718        1      496      501
     719        1      497      535
     720        1      499      525
     721        1      499      779
     722        1      500      780
     723        1      502      518
     724        1      503      782
     725        1      504      548
     726        1      504      781
     727        1      505      516
     728        1      506      521
     729        1      507      536
     730        1      508      531
     731        1      508      541
     732        1      509      536
     733        1      510      541
     734        1      511      516
     735        1      512      521
     736        1      512      551
     737        1      513      516
     738        1      513      573
     739        1      514      516
     740        1      514      517
     741        1      515      517
     742        1      515      569
     743        1      517      553
     744        1      517      555
     745        1      518      521
     746        1      519      521
     747        1      519      522
     748        1      520      522
     749        1      520      570
     750        1      522      554
     751        1      522      558
     752        1      523      526
     753        1      523      575
     754        1      524      526
     755        1      524      527
     756        1      525      527
     757        1      526      653
     758        1      527      554
     759        1      527      846
     760        1      528      531
     761        1      528      576
     762        1      529      531
     763        1      529      532
     764        1      530      532
     765        1      530      572
     766        1      531      798
     767        1      532      555
     768        1      532      841
     769        1      533      536
     770        1      533      573
     771        1      534      536
     772        1      534      537
     773        1      535      537
     774        1      537      556
     775        1      537      560
     776        1      538      541
     777        1      538      574
     778        1      539      541
     779        1      539      542
     780        1      540      542
     781        1      540      570
     782        1      542      557
     783        1      542      559
     784        1      543      546
     785        1      543      575
     786        1      544      546
     787        1      544      547
     788        1      545      547
     789        1      545      571
     790        1      546      649
     791        1      547      559
     792        1      547      845
     793        1      548      551
     794        1      549      551
     795        1      549      552
     796        1      550      552
     797        1      550      572
     798        1      551      794
     799        1      552      556
     800        1      552      848
     801        1      561      569
     802        1      561      576
     803        1      562      570
     804        1      562      575
     805        1      563      574
     806        1      564      573
     807        1      565      569
     808        1      566      570
     809        1      567      571
     810        1      567      574
     811        1      568      572
     812        1      568      573
     813        1      571      851
     814        1      572      852
     815        1      575      854
     816        1      576      853
     817        1      577      588
     818        1      578      593
     819        1      579      608
     820        1      579      742
     821        1      580      603
     822        1      580      613
     823        1      581      608
     824        1      582      613
     825        1      583      588
     826        1      583      762
     827        1      584      593
     828        1      584      623
     829        1      585      588
     830        1      585      645
     831        1      586      588
     832        1      586      589
     833        1      587      589
     834        1      587      641
     835        1      589      625
     836        1      589      627
     837        1      590      593
     838        1      590      718
     839        1      591      593
     840        1      591      594
     841        1      592      594
     842        1      592      642
     843        1      594      626
     844        1      594      630
     845        1      595      598
     846        1      595      647
     847        1      596      598
     848        1      596      599
     849        1      597      599
     850        1      597      715
     851        1      598      723
     852        1      598     1013
     853        1      599      626
     854        1      599      918
     855        1      600      603
     856        1      600      648
     857        1      601      603
     858        1      601      604
     859        1      602      604
     860        1      602      644
     861        1      603      870
     862        1      604      627
     863        1      604      913
     864        1      605      608
     865        1      605      645
     866        1      606      608
     867        1      606      609
     868        1      607      609
     869        1      607      713
     870        1      609      628
     871        1      609      632
     872        1      610      613
     873        1      610      646
     874        1      611      613
     875        1      611      614
     876        1      612      614
     877        1      612      642
     878        1      614      629
     879        1      614      631
     880        1      615      618
     881        1      615      647
     882        1      616      618
     883        1      616      619
     884        1      617      619
     885        1      617      643
     886        1      618      727
     887        1      618     1009
     888        1      619      631
     889        1      619      917
     890        1      620      623
     891        1      620      720
     892        1      621      623
     893        1      621      624
     894        1      622      624
     895        1      622      644
     896        1      623      866
     897        1      624      628
     898        1      624      920
     899        1      633      641
     900        1      633      648
     901        1      634      642
     902        1      634      647
     903        1      635      646
     904        1      636      645
     905        1      637      641
     906        1      638      642
     907        1      639      643
     908        1      639      646
     909        1      640      644
     910        1      640      645
     911        1      641      679
     912        1      643      669
     913        1      643      923
     914        1      644      924
     915        1      646      662
     916        1      647      926
     917        1      648      692
     918        1      648      925
     919        1      649      660
     920        1      650      665
     921        1      651      680
     922        1      651      814
     923        1      652      675
     924        1      652      685
     925        1      653      680
     926        1      654      685
     927        1      655      660
     928        1      655      834
     929        1      656      665
     930        1      656      695
     931        1      657      660
     932        1      657      717
     933        1      658      660
     934        1      658      661
     935        1      659      661
     936        1      659      713
     937        1      661      697
     938        1      661      699
     939        1      662      665
     940        1      663      665
     941        1      663      666
     942        1      664      666
     943        1      664      714
     944        1      666      698
     945        1      666      702
     946        1      667      670
     947        1      667      719
     948        1      668      670
     949        1      668      671
     950        1      669      671
     951        1      670      795
     952        1      670     1085
     953        1      671      698
     954        1      671      990
     955        1      672      675
     956        1      672      720
     957        1      673      675
     958        1      673      676
     959        1      674      676
     960        1      674      716
     961        1      675      942
     962        1      676      699
     963        1      676      985
     964        1      677      680
     965        1      677      717
     966        1      678      680
     967        1      678      681
     968        1      679      681
     969        1      681      700
     970        1      681      704
     971        1      682      685
     972        1      682      718
     973        1      683      685
     974        1      683      686
     975        1      684      686
     976        1      684      714
     977        1      686      701
     978        1      686      703
     979        1      687      690
     980        1      687      719
     981        1      688      690
     982        1      688      691
     983        1      689      691
     984        1      689      715
     985        1      690      799
     986        1      690     1081
     987        1      691      703
     988        1      691      989
     989        1      692      695
     990        1      693      695
     991        1      693      696
     992        1      694      696
     993        1      694      716
     994        1      695      938
     995        1      696      700
     996        1      696      992
     997        1      705      713
     998        1      705      720
     999        1      706      714
    1000        1      706      719
    1001        1      707      718
    1002        1      708      717
    1003        1      709      713
    1004        1      710      714
    1005        1      711      715
    1006        1      711      718
    1007        1      712      716
    1008        1      712      717
    1009        1      715      995
    1010        1      716      996
    1011        1      719      998
    1012        1      720      997
    1013        1      721      732
    1014        1      722      737
    1015        1      723      752
    1016        1      724      747
    1017        1      724      757
    1018        1      725      752
    1019        1      726      757
    1020        1      727      732
    1021        1      728      737
    1022        1      728      767
    1023        1      729      732
    1024        1      729      789
    1025        1      730      732
    1026        1      730      733
    1027        1      731      733
    1028        1      731      785
    1029        1      733      769
    1030        1      733      771
    1031        1      734      737
    1032        1      734      862
    1033        1      735      737
    1034        1      735      738
    1035        1      736      738
    1036        1      736      786
    1037        1      738      770
    1038        1      738      774
    1039        1      739      742
    1040        1      739      791
    1041        1      740      742
    1042        1      740      743
    1043        1      741      743
    1044        1      741      859
    1045        1      742      869
    1046        1      743      770
    1047        1      743     1062
    1048        1      744      747
    1049        1      744      792
    1050        1      745      747
    1051        1      745      748
    1052        1      746      748
    1053        1      746      788
    1054        1      747     1014
    1055        1      748      771
    1056        1      748     1057
    1057        1      749      752
    1058        1      749      789
    1059        1      750      752
    1060        1      750      753
    1061        1      751      753
    1062        1      751      857
    1063        1      753      772
    1064        1      753      776
    1065        1      754      757
    1066        1      754      790
    1067        1      755      757
    1068        1      755      758
    1069        1      756      758
    1070        1      756      786
    1071        1      758      773
    1072        1      758      775
    1073        1      759      762
    1074        1      759      791
    1075        1      760      762
    1076        1      760      763
    1077        1      761      763
    1078        1      761      787
    1079        1      762      865
    1080        1      763      775
    1081        1      763     1061
    1082        1      764      767
    1083        1      764      864
    1084        1      765      767
    1085        1      765      768
    1086        1      766      768
    1087        1      766      788
    1088        1      767     1010
    1089        1      768      772
    1090        1      768     1064
    1091        1      777      785
    1092        1      777      792
    1093        1      778      786
    1094        1      778      791
    1095        1      779      790
    1096        1      780      789
    1097        1      781      785
    1098        1      782      786
    1099        1      783      787
    1100        1      783      790
    1101        1      784      788
    1102        1      784      789
    1103        1      785      823
    1104        1      787      813
    1105        1      787     1067
    1106        1      788     1068
    1107        1      790      806
    1108        1      791     1070
    1109        1      792      836
    1110        1      792     1069
    1111        1      793      804
    1112        1      794      809
    1113        1      795      824
    1114        1      796      819
    1115        1      796      829
    1116        1      797      824
    1117        1      798      829
    1118        1      799      804
    1119        1      800      809
    1120        1      800      839
    1121        1      801      804
    1122        1      801      861
    1123        1      802      804
    1124        1      802      805
    1125        1      803      805
    1126        1      803      857
    1127        1      805      841
    1128        1      805      843
    1129        1      806      809
    1130        1      807      809
    1131        1      807      810
    1132        1      808      810
    1133        1      808      858
    1134        1      810      842
    1135        1      810      846
    1136        1      811      814
    1137        1      811      863
    1138        1      812      814
    1139        1      812      815
    1140        1      813      815
    1141        1      814      941
    1142        1      815      842
    1143        1      815     1134
    1144        1      816      819
    1145        1      816      864
    1146        1      817      819
    1147        1      817      820
    1148        1      818      820
    1149        1      818      860
    1150        1      819     1086
    1151        1      820      843
    1152        1      820     1129
    1153        1      821      824
    1154        1      821      861
    1155        1      822      824
    1156        1      822      825
    1157        1      823      825
    1158        1      825      844
    1159        1      825      848
    1160        1      826      829
    1161        1      826      862
    1162        1      827      829
    1163        1      827      830
    1164        1      828      830
    1165        1      828      858
    1166        1      830      845
    1167        1      830      847
    1168        1      831      834
    1169        1      831      863
    1170        1      832      834
    1171        1      832      835
    1172        1      833      835
    1173        1      833      859
    1174        1      834      937
    1175        1      835      847
    1176        1      835     1133
    1177        1      836      839
    1178        1      837      839
    1179        1      837      840
    1180        1      838      840
    1181        1      838      860
    1182        1      839     1082
    1183        1      840      844
    1184        1      840     1136
    1185        1      849      857
    1186        1      849      864
    1187        1      850      858
    1188        1      850      863
    1189        1      851      862
    1190        1      852      861
    1191        1      853      857
    1192        1      854      858
    1193        1      855      859
    1194        1      855      862
    1195        1      856      860
    1196        1      856      861
    1197        1      859     1139
    1198        1      860     1140
    1199        1      863     1142
    1200        1      864     1141
    1201        1      865      876
    1202        1      866      881
    1203        1      867      896
    1204        1      867     1030
    1205        1      868      891
    1206        1      868      901
    1207        1      869      896
    1208        1      870      901
    1209        1      871      876
    1210        1      871     1050
    1211        1      872      881
    1212        1      872      911
    1213        1      873      876
    1214        1      873      933
    1215        1      874      876
    1216        1      874      877
    1217        1      875      877
    1218        1      875      929
    1219        1      877      913
    1220        1      877      915
    1221        1      878      881
    1222        1      878     1006
    1223        1      879      881
    1224        1      879      882
    1225        1      880      882
    1226        1      880      930
    1227        1      882      914
    1228        1      882      918
    1229        1      883      886
    1230        1      883      935
    1231        1      884      886
    1232        1      884      887
    1233        1      885      887
    1234        1      885     1003
    1235        1      886     1011
    1236        1      887      914
    1237        1      888      891
    1238        1      888      936
    1239        1      889      891
    1240        1      889      892
    1241        1      890      892
    1242        1      890      932
    1243        1      892      915
    1244        1      893      896
    1245        1      893      933
    1246        1      894      896
    1247        1      894      897
    1248        1      895      897
    1249        1      895     1001
    1250        1      897      916
    1251        1      897      920
    1252        1      898      901
    1253        1      898      934
    1254        1      899      901
    1255        1      899      902
    1256        1      900      902
    1257        1      900      930
    1258        1      902      917
    1259        1      902      919
    1260        1      903      906
    1261        1      903      935
    1262        1      904      906
    1263        1      904      907
    1264        1      905      907
    1265        1      905      931
    1266        1      906     1015
    1267        1      907      919
    1268        1      908      911
    1269        1      908     1008
    1270        1      909      911
    1271        1      909      912
    1272        1      910      912
    1273        1      910      932
    1274        1      912      916
    1275        1      921      929
    1276        1      921      936
    1277        1      922      930
    1278        1      922      935
    1279        1      923      934
    1280        1      924      933
    1281        1      925      929
    1282        1      926      930
    1283        1      927      931
    1284        1      927      934
    1285        1      928      932
    1286        1      928      933
    1287        1      929      967
    1288        1      931      957
    1289        1      934      950
    1290        1      936      980
    1291        1      937      948
    1292        1      938      953
    1293        1      939      968
    1294        1      939     1102
    1295        1      940      963
    1296        1      940      973
    1297        1      941      968
    1298        1      942      973
    1299        1      943      948
    1300        1      943     1122
    1301        1      944      953
    1302        1      944      983
    1303        1      945      948
    1304        1      945     1005
    1305        1      946      948
    1306        1      946      949
    1307        1      947      949
    1308        1      947     1001
    1309        1      949      985
    1310        1      949      987
    1311        1      950      953
    1312        1      951      953
    1313        1      951      954
    1314        1      952      954
    1315        1      952     1002
    1316        1      954      986
    1317        1      954      990
    1318        1      955      958
    1319        1      955     1007
    1320        1      956      958
    1321        1      956      959
    1322        1      957      959
    1323        1      958     1083
    1324        1      959      986
    1325        1      960      963
    1326        1      960     1008
    1327        1      961      963
    1328        1      961      964
    1329        1      962      964
    1330        1      962     1004
    1331        1      964      987
    1332        1      965      968
    1333        1      965     1005
    1334        1      966      968
    1335        1      966      969
    1336        1      967      969
    1337        1      969      988
    1338        1      969      992
    1339        1      970      973
    1340        1      970     1006
    1341        1      971      973
    1342        1      971      974
    1343        1      972      974
    1344        1      972     1002
    1345        1      974      989
    1346        1      974      991
    1347        1      975      978
    1348        1      975     1007
    1349        1      976      978
    1350        1      976      979
    1351        1      977      979
    1352        1      977     1003
    1353        1      978     1087
    1354        1      979      991
    1355        1      980      983
    1356        1      981      983
    1357        1      981      984
    1358        1      982      984
    1359        1      982     1004
    1360        1      984      988
    1361        1      993     1001
    1362        1      993     1008
    1363        1      994     1002
    1364        1      994     1007
    1365        1      995     1006
    1366        1      996     1005
    1367        1      997     1001
    1368        1      998     1002
    1369        1      999     1003
    1370        1      999     1006
    1371        1     1000     1004
    1372        1     1000     1005
    1373        1     1009     1020
    1374        1     1010     1025
    1375        1     1011     1040
    1376        1     1012     1035
    1377        1     1012     1045
    1378        1     1013     1040
    1379        1     1014     1045
    1380        1     1015     1020
    1381        1     1016     1025
    1382        1     1016     1055
    1383        1     1017     1020
    1384        1     1017     1077
    1385        1     1018     1020
    1386        1     1018     1021
    1387        1     1019     1021
    1388        1     1019     1073
    1389        1     1021     1057
    1390        1     1021     1059
    1391        1     1022     1025
    1392        1     1022     1150
    1393        1     1023     1025
    1394        1     1023     1026
    1395        1     1024     1026
    1396        1     1024     1074
    1397        1     1026     1058
    1398        1     1026     1062
    1399        1     1027     1030
    1400        1     1027     1079
    1401        1     1028     1030
    1402        1     1028     1031
    1403        1     1029     1031
    1404        1     1029     1147
    1405        1     1031     1058
    1406        1     1032     1035
    1407        1     1032     1080
    1408        1     1033     1035
    1409        1     1033     1036
    1410        1     1034     1036
    1411        1     1034     1076
    1412        1     1036     1059
    1413        1     1037     1040
    1414        1     1037     1077
    1415        1     1038     1040
    1416        1     1038     1041
    1417        1     1039     1041
    1418        1     1039     1145
    1419        1     1041     1060
    1420        1     1041     1064
    1421        1     1042     1045
    1422        1     1042     1078
    1423        1     1043     1045
    1424        1     1043     1046
    1425        1     1044     1046
    1426        1     1044     1074
    1427        1     1046     1061
    1428        1     1046     1063
    1429        1     1047     1050
    1430        1     1047     1079
    1431        1     1048     1050
    1432        1     1048     1051
    1433        1     1049     1051
    1434        1     1049     1075
    1435        1     1051     1063
    1436        1     1052     1055
    1437        1     1052     1152
    1438        1     1053     1055
    1439        1     1053     1056
    1440        1     1054     1056
    1441        1     1054     1076
    1442        1     1056     1060
    1443        1     1065     1073
    1444        1     1065     1080
    1445        1     1066     1074
    1446        1     1066     1079
    1447        1     1067     1078
    1448        1     1068     1077
    1449        1     1069     1073
    1450        1     1070     1074
    1451        1     1071     1075
    1452        1     1071     1078
    1453        1     1072     1076
    1454        1     1072     1077
    1455        1     1073     1111
    1456        1     1075     1101
    1457        1     1078     1094
    1458        1     1080     1124
    1459        1     1081     1092
    1460        1     1082     1097
    1461        1     1083     1112
    1462        1     1084     1107
    1463        1     1084     1117
    1464        1     1085     1112
    1465        1     1086     1117
    1466        1     1087     1092
    1467        1     1088     1097
    1468        1     1088     1127
    1469        1     1089     1092
    1470        1     1089     1149
    1471        1     1090     1092
    1472        1     1090     1093
    1473        1     1091     1093
    1474        1     1091     1145
    1475        1     1093     1129
    1476        1     1093     1131
    1477        1     1094     1097
    1478        1     1095     1097
    1479        1     1095     1098
    1480        1     1096     1098
    1481        1     1096     1146
    1482        1     1098     1130
    1483        1     1098     1134
    1484        1     1099     1102
    1485        1     1099     1151
    1486        1     1100     1102
    1487        1     1100     1103
    1488        1     1101     1103
    1489        1     1103     1130
    1490        1     1104     1107
    1491        1     1104     1152
    1492        1     1105     1107
    1493        1     1105     1108
    1494        1     1106     1108
    1495        1     1106     1148
    1496        1     1108     1131
    1497        1     1109     1112
    1498        1     1109     1149
    1499        1     1110     1112
    1500        1     1110     1113
    1501        1     1111     1113
    1502        1     1113     1132
    1503        1     1113     1136
    1504        1     1114     1117
    1505        1     1114     1150
    1506        1     1115     1117
    1507        1     1115     1118
    1508        1     1116     1118
    1509        1     1116     1146
    1510        1     1118     1133
    1511        1     1118     1135
    1512        1     1119     1122
    1513        1     1119     1151
    1514        1     1120     1122
    1515        1     1120     1123
    1516        1     1121     1123
    1517        1     1121     1147
    1518        1     1123     1135
    1519        1     1124     1127
    1520        1     1125     1127
    1521        1     1125     1128
    1522        1     1126     1128
    1523        1     1126     1148
    1524        1     1128     1132
    1525        1     1137     1145
    1526        1     1137     1152
    1527        1     1138     1146
    1528        1     1138     1151
    1529        1     1139     1150
    1530        1     1140     1149
    1531        1     1141     1145
    1532        1     1142     1146
    1533        1     1143     1147
    1534        1     1143     1150
    1535        1     1144     1148
    1536        1     1144     1149
1537 2 1154 1153
1538 3 1155 1154
1539 4 1156 1154
1540 5 1157 1156
1541 6 1158 1156
1542 7 1159 1158
1543 8 1160 1155
1544 9 1161 1155
1545 10 1162 1161
1546 11 1163 1160
1547 12 1164 1163
1548 13 1165 1161
1549 14 1166 1165
1550 15 1167 1163
1551 16 1168 1167
1552 17 1160 1158
1553 18 1167 1165
1554 2 1170 1169
1555 3 1171 1170
1556 4 1172 1170
1557 5 1173 1172
1558 6 1174 1172
1559 7 1175 1174
1560 8 1176 1171
1561 9 1177 1171
1562 10 1178 1177
1563 11 1179 1176
1564 12 1180 1179
1565 13 1181 1177
1566 14 1182 1181
1567 15 1183 1179
1568 16 1184 1183
1569 17 1176 1174
1570 18 1183 1181
1571 2 1186 1185
1572 3 1187 1186
1573 4 1188 1186
1574 5 1189 1188
1575 6 1190 1188
1576 7 1191 1190
1577 8 1192 1187
1578 9 1193 1187
1579 10 1194 1193
1580 11 1195 1192
1581 12 1196 1195
1582 13 1197 1193
1583 14 1198 1197
1584 15 1199 1195
1585 16 1200 1199
1586 17 1192 1190
1587 18 1199 1197
1588 2 1202 1201
1589 3 1203 1202
1590 4 1204 1202
1591 5 1205 1204
1592 6 1206 1204
1593 7 1207 1206
1594 8 1208 1203
1595 9 1209 1203
1596 10 1210 1209
1597 11 1211 1208
1598 12 1212 1211
1599 13 1213 1209
1600 14 1214 1213
1601 15 1215 1211
1602 16 1216 1215
1603 17 1208 1206
1604 18 1215 1213
1605 2 1218 1217
1606 3 1219 1218
1607 4 1220 1218
1608 5 1221 1220
1609 6 1222 1220
1610 7 1223 1222
1611 8 1224 1219
1612 9 1225 1219
1613 10 1226 1225
1614 11 1227 1224
1615 12 1228 1227
1616 13 1229 1225
1617 14 1230 1229
1618 15 1231 1227
1619 16 1232 1231
1620 17 1224 1222
1621 18 1231 1229

Angles

       1        1       12        1     1050
       2        1       17        2      911
       3        1       32        3      166
       4        1       27        4       37
       5        1       32        5     1030
       6        1       37        6      891
       7        1       12        7      186
       8        1       17        8       47
       9        1       12        9       69
      10        1       12       10       13
      11        1       13       11       65
      12        2        1       12        7
      13        2        1       12        9
      14        2        1       12       10
      15        2        7       12        9
      16        2        7       12       10
      17        2        9       12       10
      18        2       10       13       11
      19        2       10       13       49
      20        2       10       13       51
      21        2       11       13       49
      22        2       11       13       51
      23        2       49       13       51
      24        1       17       14      142
      25        1       17       15       18
      26        1       18       16       66
      27        2        2       17        8
      28        2        2       17       14
      29        2        2       17       15
      30        2        8       17       14
      31        2        8       17       15
      32        2       14       17       15
      33        2       15       18       16
      34        2       15       18       50
      35        2       15       18       54
      36        2       16       18       50
      37        2       16       18       54
      38        2       50       18       54
      39        1       22       19       71
      40        1       22       20       23
      41        1       23       21      139
      42        2       19       22       20
      43        2       19       22      147
      44        2       19       22      437
      45        2       20       22      147
      46        2       20       22      437
      47        2      147       22      437
      48        2       20       23       21
      49        2       20       23       50
      50        2       20       23      342
      51        2       21       23       50
      52        2       21       23      342
      53        2       50       23      342
      54        1       27       24       72
      55        1       27       25       28
      56        1       28       26       68
      57        2        4       27       24
      58        2        4       27       25
      59        2        4       27      294
      60        2       24       27       25
      61        2       24       27      294
      62        2       25       27      294
      63        2       25       28       26
      64        2       25       28       51
      65        2       25       28      337
      66        2       26       28       51
      67        2       26       28      337
      68        2       51       28      337
      69        1       32       29       69
      70        1       32       30       33
      71        1       33       31      137
      72        2        3       32        5
      73        2        3       32       29
      74        2        3       32       30
      75        2        5       32       29
      76        2        5       32       30
      77        2       29       32       30
      78        2       30       33       31
      79        2       30       33       52
      80        2       30       33       56
      81        2       31       33       52
      82        2       31       33       56
      83        2       52       33       56
      84        1       37       34       70
      85        1       37       35       38
      86        1       38       36       66
      87        2        4       37        6
      88        2        4       37       34
      89        2        4       37       35
      90        2        6       37       34
      91        2        6       37       35
      92        2       34       37       35
      93        2       35       38       36
      94        2       35       38       53
      95        2       35       38       55
      96        2       36       38       53
      97        2       36       38       55
      98        2       53       38       55
      99        1       42       39       71
     100        1       42       40       43
     101        1       43       41       67
     102        2       39       42       40
     103        2       39       42      151
     104        2       39       42      433
     105        2       40       42      151
     106        2       40       42      433
     107        2      151       42      433
     108        2       40       43       41
     109        2       40       43       55
     110        2       40       43      341
     111        2       41       43       55
     112        2       41       43      341
     113        2       55       43      341
     114        1       47       44      144
     115        1       47       45       48
     116        1       48       46       68
     117        2        8       47       44
     118        2        8       47       45
     119        2        8       47      290
     120        2       44       47       45
     121        2       44       47      290
     122        2       45       47      290
     123        2       45       48       46
     124        2       45       48       52
     125        2       45       48      344
     126        2       46       48       52
     127        2       46       48      344
     128        2       52       48      344
     129        1       13       49      892
     130        1       18       50       23
     131        1       13       51       28
     132        1       33       52       48
     133        1       38       53      907
     134        1       18       54      887
     135        1       38       55       43
     136        1       33       56      912
     137        1       65       57       72
     138        1       66       58       71
     139        1       70       59      931
     140        1       69       60      932
     141        1       65       61      936
     142        1       66       62      935
     143        1       67       63       70
     144        1       68       64       69
     145        2       11       65       57
     146        2       11       65       61
     147        2       11       65      103
     148        2       57       65       61
     149        2       57       65      103
     150        2       61       65      103
     151        2       16       66       36
     152        2       16       66       58
     153        2       16       66       62
     154        2       36       66       58
     155        2       36       66       62
     156        2       58       66       62
     157        2       41       67       63
     158        2       41       67       93
     159        2       41       67      347
     160        2       63       67       93
     161        2       63       67      347
     162        2       93       67      347
     163        2       26       68       46
     164        2       26       68       64
     165        2       26       68      348
     166        2       46       68       64
     167        2       46       68      348
     168        2       64       68      348
     169        2        9       69       29
     170        2        9       69       60
     171        2        9       69       64
     172        2       29       69       60
     173        2       29       69       64
     174        2       60       69       64
     175        2       34       70       59
     176        2       34       70       63
     177        2       34       70       86
     178        2       59       70       63
     179        2       59       70       86
     180        2       63       70       86
     181        2       19       71       39
     182        2       19       71       58
     183        2       19       71      350
     184        2       39       71       58
     185        2       39       71      350
     186        2       58       71      350
     187        2       24       72       57
     188        2       24       72      116
     189        2       24       72      349
     190        2       57       72      116
     191        2       57       72      349
     192        2      116       72      349
     193        1       84       73     1122
     194        1       89       74      983
     195        1      104       75      238
     196        1       99       76      109
     197        1      104       77     1102
     198        1      109       78      963
     199        1       84       79      258
     200        1       89       80      119
     201        1       84       81      141
     202        1       84       82       85
     203        1       85       83      137
     204        2       73       84       79
     205        2       73       84       81
     206        2       73       84       82
     207        2       79       84       81
     208        2       79       84       82
     209        2       81       84       82
     210        2       82       85       83
     211        2       82       85      121
     212        2       82       85      123
     213        2       83       85      121
     214        2       83       85      123
     215        2      121       85      123
     216        1       70       86       89
     217        1       89       87       90
     218        1       90       88      138
     219        2       74       89       80
     220        2       74       89       86
     221        2       74       89       87
     222        2       80       89       86
     223        2       80       89       87
     224        2       86       89       87
     225        2       87       90       88
     226        2       87       90      122
     227        2       87       90      126
     228        2       88       90      122
     229        2       88       90      126
     230        2      122       90      126
     231        1       94       91      143
     232        1       94       92       95
     233        1       67       93       95
     234        2       91       94       92
     235        2       91       94      219
     236        2       91       94      509
     237        2       92       94      219
     238        2       92       94      509
     239        2      219       94      509
     240        2       92       95       93
     241        2       92       95      122
     242        2       92       95      414
     243        2       93       95      122
     244        2       93       95      414
     245        2      122       95      414
     246        1       99       96      144
     247        1       99       97      100
     248        1      100       98      140
     249        2       76       99       96
     250        2       76       99       97
     251        2       76       99      366
     252        2       96       99       97
     253        2       96       99      366
     254        2       97       99      366
     255        2       97      100       98
     256        2       97      100      123
     257        2       97      100      409
     258        2       98      100      123
     259        2       98      100      409
     260        2      123      100      409
     261        1      104      101      141
     262        1      104      102      105
     263        1       65      103      105
     264        2       75      104       77
     265        2       75      104      101
     266        2       75      104      102
     267        2       77      104      101
     268        2       77      104      102
     269        2      101      104      102
     270        2      102      105      103
     271        2      102      105      124
     272        2      102      105      128
     273        2      103      105      124
     274        2      103      105      128
     275        2      124      105      128
     276        1      109      106      142
     277        1      109      107      110
     278        1      110      108      138
     279        2       76      109       78
     280        2       76      109      106
     281        2       76      109      107
     282        2       78      109      106
     283        2       78      109      107
     284        2      106      109      107
     285        2      107      110      108
     286        2      107      110      125
     287        2      107      110      127
     288        2      108      110      125
     289        2      108      110      127
     290        2      125      110      127
     291        1      114      111      143
     292        1      114      112      115
     293        1      115      113      139
     294        2      111      114      112
     295        2      111      114      223
     296        2      111      114      505
     297        2      112      114      223
     298        2      112      114      505
     299        2      223      114      505
     300        2      112      115      113
     301        2      112      115      127
     302        2      112      115      413
     303        2      113      115      127
     304        2      113      115      413
     305        2      127      115      413
     306        1       72      116      119
     307        1      119      117      120
     308        1      120      118      140
     309        2       80      119      116
     310        2       80      119      117
     311        2       80      119      362
     312        2      116      119      117
     313        2      116      119      362
     314        2      117      119      362
     315        2      117      120      118
     316        2      117      120      124
     317        2      117      120      416
     318        2      118      120      124
     319        2      118      120      416
     320        2      124      120      416
     321        1       85      121      964
     322        1       90      122       95
     323        1       85      123      100
     324        1      105      124      120
     325        1      110      125      979
     326        1       90      126      959
     327        1      110      127      115
     328        1      105      128      984
     329        1      137      129      144
     330        1      138      130      143
     331        1      142      131     1003
     332        1      141      132     1004
     333        1      137      133     1008
     334        1      138      134     1007
     335        1      139      135      142
     336        1      140      136      141
     337        2       31      137       83
     338        2       31      137      129
     339        2       31      137      133
     340        2       83      137      129
     341        2       83      137      133
     342        2      129      137      133
     343        2       88      138      108
     344        2       88      138      130
     345        2       88      138      134
     346        2      108      138      130
     347        2      108      138      134
     348        2      130      138      134
     349        2       21      139      113
     350        2       21      139      135
     351        2       21      139      419
     352        2      113      139      135
     353        2      113      139      419
     354        2      135      139      419
     355        2       98      140      118
     356        2       98      140      136
     357        2       98      140      420
     358        2      118      140      136
     359        2      118      140      420
     360        2      136      140      420
     361        2       81      141      101
     362        2       81      141      132
     363        2       81      141      136
     364        2      101      141      132
     365        2      101      141      136
     366        2      132      141      136
     367        2       14      142      106
     368        2       14      142      131
     369        2       14      142      135
     370        2      106      142      131
     371        2      106      142      135
     372        2      131      142      135
     373        2       91      143      111
     374        2       91      143      130
     375        2       91      143      422
     376        2      111      143      130
     377        2      111      143      422
     378        2      130      143      422
     379        2       44      144       96
     380        2       44      144      129
     381        2       44      144      421
     382        2       96      144      129
     383        2       96      144      421
     384        2      129      144      421
     385        1      156      145      906
     386        1      161      146     1055
     387        1       22      147      176
     388        1      171      148      181
     389        1      176      149      886
     390        1      181      150     1035
     391        1       42      151      156
     392        1      161      152      191
     393        1      156      153      213
     394        1      156      154      157
     395        1      157      155      209
     396        2      145      156      151
     397        2      145      156      153
     398        2      145      156      154
     399        2      151      156      153
     400        2      151      156      154
     401        2      153      156      154
     402        2      154      157      155
     403        2      154      157      193
     404        2      154      157      195
     405        2      155      157      193
     406        2      155      157      195
     407        2      193      157      195
     408        1      161      158      286
     409        1      161      159      162
     410        1      162      160      210
     411        2      146      161      152
     412        2      146      161      158
     413        2      146      161      159
     414        2      152      161      158
     415        2      152      161      159
     416        2      158      161      159
     417        2      159      162      160
     418        2      159      162      194
     419        2      159      162      198
     420        2      160      162      194
     421        2      160      162      198
     422        2      194      162      198
     423        1      166      163      215
     424        1      166      164      167
     425        1      167      165      283
     426        2        3      166      163
     427        2        3      166      164
     428        2        3      166      293
     429        2      163      166      164
     430        2      163      166      293
     431        2      164      166      293
     432        2      164      167      165
     433        2      164      167      194
     434        2      164      167      486
     435        2      165      167      194
     436        2      165      167      486
     437        2      194      167      486
     438        1      171      168      216
     439        1      171      169      172
     440        1      172      170      212
     441        2      148      171      168
     442        2      148      171      169
     443        2      148      171      438
     444        2      168      171      169
     445        2      168      171      438
     446        2      169      171      438
     447        2      169      172      170
     448        2      169      172      195
     449        2      169      172      481
     450        2      170      172      195
     451        2      170      172      481
     452        2      195      172      481
     453        1      176      173      213
     454        1      176      174      177
     455        1      177      175      281
     456        2      147      176      149
     457        2      147      176      173
     458        2      147      176      174
     459        2      149      176      173
     460        2      149      176      174
     461        2      173      176      174
     462        2      174      177      175
     463        2      174      177      196
     464        2      174      177      200
     465        2      175      177      196
     466        2      175      177      200
     467        2      196      177      200
     468        1      181      178      214
     469        1      181      179      182
     470        1      182      180      210
     471        2      148      181      150
     472        2      148      181      178
     473        2      148      181      179
     474        2      150      181      178
     475        2      150      181      179
     476        2      178      181      179
     477        2      179      182      180
     478        2      179      182      197
     479        2      179      182      199
     480        2      180      182      197
     481        2      180      182      199
     482        2      197      182      199
     483        1      186      183      215
     484        1      186      184      187
     485        1      187      185      211
     486        2        7      186      183
     487        2        7      186      184
     488        2        7      186      289
     489        2      183      186      184
     490        2      183      186      289
     491        2      184      186      289
     492        2      184      187      185
     493        2      184      187      199
     494        2      184      187      485
     495        2      185      187      199
     496        2      185      187      485
     497        2      199      187      485
     498        1      191      188      288
     499        1      191      189      192
     500        1      192      190      212
     501        2      152      191      188
     502        2      152      191      189
     503        2      152      191      434
     504        2      188      191      189
     505        2      188      191      434
     506        2      189      191      434
     507        2      189      192      190
     508        2      189      192      196
     509        2      189      192      488
     510        2      190      192      196
     511        2      190      192      488
     512        2      196      192      488
     513        1      157      193     1036
     514        1      162      194      167
     515        1      157      195      172
     516        1      177      196      192
     517        1      182      197     1051
     518        1      162      198     1031
     519        1      182      199      187
     520        1      177      200     1056
     521        1      209      201      216
     522        1      210      202      215
     523        1      214      203     1075
     524        1      213      204     1076
     525        1      209      205     1080
     526        1      210      206     1079
     527        1      211      207      214
     528        1      212      208      213
     529        2      155      209      201
     530        2      155      209      205
     531        2      155      209      247
     532        2      201      209      205
     533        2      201      209      247
     534        2      205      209      247
     535        2      160      210      180
     536        2      160      210      202
     537        2      160      210      206
     538        2      180      210      202
     539        2      180      210      206
     540        2      202      210      206
     541        2      185      211      207
     542        2      185      211      237
     543        2      185      211      491
     544        2      207      211      237
     545        2      207      211      491
     546        2      237      211      491
     547        2      170      212      190
     548        2      170      212      208
     549        2      170      212      492
     550        2      190      212      208
     551        2      190      212      492
     552        2      208      212      492
     553        2      153      213      173
     554        2      153      213      204
     555        2      153      213      208
     556        2      173      213      204
     557        2      173      213      208
     558        2      204      213      208
     559        2      178      214      203
     560        2      178      214      207
     561        2      178      214      230
     562        2      203      214      207
     563        2      203      214      230
     564        2      207      214      230
     565        2      163      215      183
     566        2      163      215      202
     567        2      163      215      494
     568        2      183      215      202
     569        2      183      215      494
     570        2      202      215      494
     571        2      168      216      201
     572        2      168      216      260
     573        2      168      216      493
     574        2      201      216      260
     575        2      201      216      493
     576        2      260      216      493
     577        1      228      217      978
     578        1      233      218     1127
     579        1       94      219      248
     580        1      243      220      253
     581        1      248      221      958
     582        1      253      222     1107
     583        1      114      223      228
     584        1      233      224      263
     585        1      228      225      285
     586        1      228      226      229
     587        1      229      227      281
     588        2      217      228      223
     589        2      217      228      225
     590        2      217      228      226
     591        2      223      228      225
     592        2      223      228      226
     593        2      225      228      226
     594        2      226      229      227
     595        2      226      229      265
     596        2      226      229      267
     597        2      227      229      265
     598        2      227      229      267
     599        2      265      229      267
     600        1      214      230      233
     601        1      233      231      234
     602        1      234      232      282
     603        2      218      233      224
     604        2      218      233      230
     605        2      218      233      231
     606        2      224      233      230
     607        2      224      233      231
     608        2      230      233      231
     609        2      231      234      232
     610        2      231      234      266
     611        2      231      234      270
     612        2      232      234      266
     613        2      232      234      270
     614        2      266      234      270
     615        1      238      235      287
     616        1      238      236      239
     617        1      211      237      239
     618        2       75      238      235
     619        2       75      238      236
     620        2       75      238      365
     621        2      235      238      236
     622        2      235      238      365
     623        2      236      238      365
     624        2      236      239      237
     625        2      236      239      266
     626        2      236      239      558
     627        2      237      239      266
     628        2      237      239      558
     629        2      266      239      558
     630        1      243      240      288
     631        1      243      241      244
     632        1      244      242      284
     633        2      220      243      240
     634        2      220      243      241
     635        2      220      243      510
     636        2      240      243      241
     637        2      240      243      510
     638        2      241      243      510
     639        2      241      244      242
     640        2      241      244      267
     641        2      241      244      553
     642        2      242      244      267
     643        2      242      244      553
     644        2      267      244      553
     645        1      248      245      285
     646        1      248      246      249
     647        1      209      247      249
     648        2      219      248      221
     649        2      219      248      245
     650        2      219      248      246
     651        2      221      248      245
     652        2      221      248      246
     653        2      245      248      246
     654        2      246      249      247
     655        2      246      249      268
     656        2      246      249      272
     657        2      247      249      268
     658        2      247      249      272
     659        2      268      249      272
     660        1      253      250      286
     661        1      253      251      254
     662        1      254      252      282
     663        2      220      253      222
     664        2      220      253      250
     665        2      220      253      251
     666        2      222      253      250
     667        2      222      253      251
     668        2      250      253      251
     669        2      251      254      252
     670        2      251      254      269
     671        2      251      254      271
     672        2      252      254      269
     673        2      252      254      271
     674        2      269      254      271
     675        1      258      255      287
     676        1      258      256      259
     677        1      259      257      283
     678        2       79      258      255
     679        2       79      258      256
     680        2       79      258      361
     681        2      255      258      256
     682        2      255      258      361
     683        2      256      258      361
     684        2      256      259      257
     685        2      256      259      271
     686        2      256      259      557
     687        2      257      259      271
     688        2      257      259      557
     689        2      271      259      557
     690        1      216      260      263
     691        1      263      261      264
     692        1      264      262      284
     693        2      224      263      260
     694        2      224      263      261
     695        2      224      263      506
     696        2      260      263      261
     697        2      260      263      506
     698        2      261      263      506
     699        2      261      264      262
     700        2      261      264      268
     701        2      261      264      560
     702        2      262      264      268
     703        2      262      264      560
     704        2      268      264      560
     705        1      229      265     1108
     706        1      234      266      239
     707        1      229      267      244
     708        1      249      268      264
     709        1      254      269     1123
     710        1      234      270     1103
     711        1      254      271      259
     712        1      249      272     1128
     713        1      281      273      288
     714        1      282      274      287
     715        1      286      275     1147
     716        1      285      276     1148
     717        1      281      277     1152
     718        1      282      278     1151
     719        1      283      279      286
     720        1      284      280      285
     721        2      175      281      227
     722        2      175      281      273
     723        2      175      281      277
     724        2      227      281      273
     725        2      227      281      277
     726        2      273      281      277
     727        2      232      282      252
     728        2      232      282      274
     729        2      232      282      278
     730        2      252      282      274
     731        2      252      282      278
     732        2      274      282      278
     733        2      165      283      257
     734        2      165      283      279
     735        2      165      283      563
     736        2      257      283      279
     737        2      257      283      563
     738        2      279      283      563
     739        2      242      284      262
     740        2      242      284      280
     741        2      242      284      564
     742        2      262      284      280
     743        2      262      284      564
     744        2      280      284      564
     745        2      225      285      245
     746        2      225      285      276
     747        2      225      285      280
     748        2      245      285      276
     749        2      245      285      280
     750        2      276      285      280
     751        2      158      286      250
     752        2      158      286      275
     753        2      158      286      279
     754        2      250      286      275
     755        2      250      286      279
     756        2      275      286      279
     757        2      235      287      255
     758        2      235      287      274
     759        2      235      287      566
     760        2      255      287      274
     761        2      255      287      566
     762        2      274      287      566
     763        2      188      288      240
     764        2      188      288      273
     765        2      188      288      565
     766        2      240      288      273
     767        2      240      288      565
     768        2      273      288      565
     769        1      186      289      300
     770        1       47      290      305
     771        1      320      291      454
     772        1      315      292      325
     773        1      166      293      320
     774        1       27      294      325
     775        1      300      295      474
     776        1      305      296      335
     777        1      300      297      357
     778        1      300      298      301
     779        1      301      299      353
     780        2      289      300      295
     781        2      289      300      297
     782        2      289      300      298
     783        2      295      300      297
     784        2      295      300      298
     785        2      297      300      298
     786        2      298      301      299
     787        2      298      301      337
     788        2      298      301      339
     789        2      299      301      337
     790        2      299      301      339
     791        2      337      301      339
     792        1      305      302      430
     793        1      305      303      306
     794        1      306      304      354
     795        2      290      305      296
     796        2      290      305      302
     797        2      290      305      303
     798        2      296      305      302
     799        2      296      305      303
     800        2      302      305      303
     801        2      303      306      304
     802        2      303      306      338
     803        2      303      306      342
     804        2      304      306      338
     805        2      304      306      342
     806        2      338      306      342
     807        1      310      307      359
     808        1      310      308      311
     809        1      311      309      427
     810        2      307      310      308
     811        2      307      310      435
     812        2      307      310      725
     813        2      308      310      435
     814        2      308      310      725
     815        2      435      310      725
     816        2      308      311      309
     817        2      308      311      338
     818        2      308      311      630
     819        2      309      311      338
     820        2      309      311      630
     821        2      338      311      630
     822        1      315      312      360
     823        1      315      313      316
     824        1      316      314      356
     825        2      292      315      312
     826        2      292      315      313
     827        2      292      315      582
     828        2      312      315      313
     829        2      312      315      582
     830        2      313      315      582
     831        2      313      316      314
     832        2      313      316      339
     833        2      313      316      625
     834        2      314      316      339
     835        2      314      316      625
     836        2      339      316      625
     837        1      320      317      357
     838        1      320      318      321
     839        1      321      319      425
     840        2      291      320      293
     841        2      291      320      317
     842        2      291      320      318
     843        2      293      320      317
     844        2      293      320      318
     845        2      317      320      318
     846        2      318      321      319
     847        2      318      321      340
     848        2      318      321      344
     849        2      319      321      340
     850        2      319      321      344
     851        2      340      321      344
     852        1      325      322      358
     853        1      325      323      326
     854        1      326      324      354
     855        2      292      325      294
     856        2      292      325      322
     857        2      292      325      323
     858        2      294      325      322
     859        2      294      325      323
     860        2      322      325      323
     861        2      323      326      324
     862        2      323      326      341
     863        2      323      326      343
     864        2      324      326      341
     865        2      324      326      343
     866        2      341      326      343
     867        1      330      327      359
     868        1      330      328      331
     869        1      331      329      355
     870        2      327      330      328
     871        2      327      330      439
     872        2      327      330      721
     873        2      328      330      439
     874        2      328      330      721
     875        2      439      330      721
     876        2      328      331      329
     877        2      328      331      343
     878        2      328      331      629
     879        2      329      331      343
     880        2      329      331      629
     881        2      343      331      629
     882        1      335      332      432
     883        1      335      333      336
     884        1      336      334      356
     885        2      296      335      332
     886        2      296      335      333
     887        2      296      335      578
     888        2      332      335      333
     889        2      332      335      578
     890        2      333      335      578
     891        2      333      336      334
     892        2      333      336      340
     893        2      333      336      632
     894        2      334      336      340
     895        2      334      336      632
     896        2      340      336      632
     897        1       28      337      301
     898        1      306      338      311
     899        1      301      339      316
     900        1      321      340      336
     901        1       43      341      326
     902        1       23      342      306
     903        1      326      343      331
     904        1       48      344      321
     905        1      353      345      360
     906        1      354      346      359
     907        1       67      347      358
     908        1       68      348      357
     909        1       72      349      353
     910        1       71      350      354
     911        1      355      351      358
     912        1      356      352      357
     913        2      299      353      345
     914        2      299      353      349
     915        2      299      353      391
     916        2      345      353      349
     917        2      345      353      391
     918        2      349      353      391
     919        2      304      354      324
     920        2      304      354      346
     921        2      304      354      350
     922        2      324      354      346
     923        2      324      354      350
     924        2      346      354      350
     925        2      329      355      351
     926        2      329      355      381
     927        2      329      355      635
     928        2      351      355      381
     929        2      351      355      635
     930        2      381      355      635
     931        2      314      356      334
     932        2      314      356      352
     933        2      314      356      636
     934        2      334      356      352
     935        2      334      356      636
     936        2      352      356      636
     937        2      297      357      317
     938        2      297      357      348
     939        2      297      357      352
     940        2      317      357      348
     941        2      317      357      352
     942        2      348      357      352
     943        2      322      358      347
     944        2      322      358      351
     945        2      322      358      374
     946        2      347      358      351
     947        2      347      358      374
     948        2      351      358      374
     949        2      307      359      327
     950        2      307      359      346
     951        2      307      359      638
     952        2      327      359      346
     953        2      327      359      638
     954        2      346      359      638
     955        2      312      360      345
     956        2      312      360      404
     957        2      312      360      637
     958        2      345      360      404
     959        2      345      360      637
     960        2      404      360      637
     961        1      258      361      372
     962        1      119      362      377
     963        1      392      363      526
     964        1      387      364      397
     965        1      238      365      392
     966        1       99      366      397
     967        1      372      367      546
     968        1      377      368      407
     969        1      372      369      429
     970        1      372      370      373
     971        1      373      371      425
     972        2      361      372      367
     973        2      361      372      369
     974        2      361      372      370
     975        2      367      372      369
     976        2      367      372      370
     977        2      369      372      370
     978        2      370      373      371
     979        2      370      373      409
     980        2      370      373      411
     981        2      371      373      409
     982        2      371      373      411
     983        2      409      373      411
     984        1      358      374      377
     985        1      377      375      378
     986        1      378      376      426
     987        2      362      377      368
     988        2      362      377      374
     989        2      362      377      375
     990        2      368      377      374
     991        2      368      377      375
     992        2      374      377      375
     993        2      375      378      376
     994        2      375      378      410
     995        2      375      378      414
     996        2      376      378      410
     997        2      376      378      414
     998        2      410      378      414
     999        1      382      379      431
    1000        1      382      380      383
    1001        1      355      381      383
    1002        2      379      382      380
    1003        2      379      382      507
    1004        2      379      382      797
    1005        2      380      382      507
    1006        2      380      382      797
    1007        2      507      382      797
    1008        2      380      383      381
    1009        2      380      383      410
    1010        2      380      383      702
    1011        2      381      383      410
    1012        2      381      383      702
    1013        2      410      383      702
    1014        1      387      384      432
    1015        1      387      385      388
    1016        1      388      386      428
    1017        2      364      387      384
    1018        2      364      387      385
    1019        2      364      387      654
    1020        2      384      387      385
    1021        2      384      387      654
    1022        2      385      387      654
    1023        2      385      388      386
    1024        2      385      388      411
    1025        2      385      388      697
    1026        2      386      388      411
    1027        2      386      388      697
    1028        2      411      388      697
    1029        1      392      389      429
    1030        1      392      390      393
    1031        1      353      391      393
    1032        2      363      392      365
    1033        2      363      392      389
    1034        2      363      392      390
    1035        2      365      392      389
    1036        2      365      392      390
    1037        2      389      392      390
    1038        2      390      393      391
    1039        2      390      393      412
    1040        2      390      393      416
    1041        2      391      393      412
    1042        2      391      393      416
    1043        2      412      393      416
    1044        1      397      394      430
    1045        1      397      395      398
    1046        1      398      396      426
    1047        2      364      397      366
    1048        2      364      397      394
    1049        2      364      397      395
    1050        2      366      397      394
    1051        2      366      397      395
    1052        2      394      397      395
    1053        2      395      398      396
    1054        2      395      398      413
    1055        2      395      398      415
    1056        2      396      398      413
    1057        2      396      398      415
    1058        2      413      398      415
    1059        1      402      399      431
    1060        1      402      400      403
    1061        1      403      401      427
    1062        2      399      402      400
    1063        2      399      402      511
    1064        2      399      402      793
    1065        2      400      402      511
    1066        2      400      402      793
    1067        2      511      402      793
    1068        2      400      403      401
    1069        2      400      403      415
    1070        2      400      403      701
    1071        2      401      403      415
    1072        2      401      403      701
    1073        2      415      403      701
    1074        1      360      404      407
    1075        1      407      405      408
    1076        1      408      406      428
    1077        2      368      407      404
    1078        2      368      407      405
    1079        2      368      407      650
    1080        2      404      407      405
    1081        2      404      407      650
    1082        2      405      407      650
    1083        2      405      408      406
    1084        2      405      408      412
    1085        2      405      408      704
    1086        2      406      408      412
    1087        2      406      408      704
    1088        2      412      408      704
    1089        1      100      409      373
    1090        1      378      410      383
    1091        1      373      411      388
    1092        1      393      412      408
    1093        1      115      413      398
    1094        1       95      414      378
    1095        1      398      415      403
    1096        1      120      416      393
    1097        1      425      417      432
    1098        1      426      418      431
    1099        1      139      419      430
    1100        1      140      420      429
    1101        1      144      421      425
    1102        1      143      422      426
    1103        1      427      423      430
    1104        1      428      424      429
    1105        2      319      425      371
    1106        2      319      425      417
    1107        2      319      425      421
    1108        2      371      425      417
    1109        2      371      425      421
    1110        2      417      425      421
    1111        2      376      426      396
    1112        2      376      426      418
    1113        2      376      426      422
    1114        2      396      426      418
    1115        2      396      426      422
    1116        2      418      426      422
    1117        2      309      427      401
    1118        2      309      427      423
    1119        2      309      427      707
    1120        2      401      427      423
    1121        2      401      427      707
    1122        2      423      427      707
    1123        2      386      428      406
    1124        2      386      428      424
    1125        2      386      428      708
    1126        2      406      428      424
    1127        2      406      428      708
    1128        2      424      428      708
    1129        2      369      429      389
    1130        2      369      429      420
    1131        2      369      429      424
    1132        2      389      429      420
    1133        2      389      429      424
    1134        2      420      429      424
    1135        2      302      430      394
    1136        2      302      430      419
    1137        2      302      430      423
    1138        2      394      430      419
    1139        2      394      430      423
    1140        2      419      430      423
    1141        2      379      431      399
    1142        2      379      431      418
    1143        2      379      431      710
    1144        2      399      431      418
    1145        2      399      431      710
    1146        2      418      431      710
    1147        2      332      432      384
    1148        2      332      432      417
    1149        2      332      432      709
    1150        2      384      432      417
    1151        2      384      432      709
    1152        2      417      432      709
    1153        1       42      433      444
    1154        1      191      434      449
    1155        1      310      435      464
    1156        1      459      436      469
    1157        1       22      437      464
    1158        1      171      438      469
    1159        1      330      439      444
    1160        1      449      440      479
    1161        1      444      441      501
    1162        1      444      442      445
    1163        1      445      443      497
    1164        2      433      444      439
    1165        2      433      444      441
    1166        2      433      444      442
    1167        2      439      444      441
    1168        2      439      444      442
    1169        2      441      444      442
    1170        2      442      445      443
    1171        2      442      445      481
    1172        2      442      445      483
    1173        2      443      445      481
    1174        2      443      445      483
    1175        2      481      445      483
    1176        1      449      446      574
    1177        1      449      447      450
    1178        1      450      448      498
    1179        2      434      449      440
    1180        2      434      449      446
    1181        2      434      449      447
    1182        2      440      449      446
    1183        2      440      449      447
    1184        2      446      449      447
    1185        2      447      450      448
    1186        2      447      450      482
    1187        2      447      450      486
    1188        2      448      450      482
    1189        2      448      450      486
    1190        2      482      450      486
    1191        1      454      451      503
    1192        1      454      452      455
    1193        1      455      453      571
    1194        2      291      454      451
    1195        2      291      454      452
    1196        2      291      454      581
    1197        2      451      454      452
    1198        2      451      454      581
    1199        2      452      454      581
    1200        2      452      455      453
    1201        2      452      455      482
    1202        2      452      455      774
    1203        2      453      455      482
    1204        2      453      455      774
    1205        2      482      455      774
    1206        1      459      456      504
    1207        1      459      457      460
    1208        1      460      458      500
    1209        2      436      459      456
    1210        2      436      459      457
    1211        2      436      459      726
    1212        2      456      459      457
    1213        2      456      459      726
    1214        2      457      459      726
    1215        2      457      460      458
    1216        2      457      460      483
    1217        2      457      460      769
    1218        2      458      460      483
    1219        2      458      460      769
    1220        2      483      460      769
    1221        1      464      461      501
    1222        1      464      462      465
    1223        1      465      463      569
    1224        2      435      464      437
    1225        2      435      464      461
    1226        2      435      464      462
    1227        2      437      464      461
    1228        2      437      464      462
    1229        2      461      464      462
    1230        2      462      465      463
    1231        2      462      465      484
    1232        2      462      465      488
    1233        2      463      465      484
    1234        2      463      465      488
    1235        2      484      465      488
    1236        1      469      466      502
    1237        1      469      467      470
    1238        1      470      468      498
    1239        2      436      469      438
    1240        2      436      469      466
    1241        2      436      469      467
    1242        2      438      469      466
    1243        2      438      469      467
    1244        2      466      469      467
    1245        2      467      470      468
    1246        2      467      470      485
    1247        2      467      470      487
    1248        2      468      470      485
    1249        2      468      470      487
    1250        2      485      470      487
    1251        1      474      471      503
    1252        1      474      472      475
    1253        1      475      473      499
    1254        2      295      474      471
    1255        2      295      474      472
    1256        2      295      474      577
    1257        2      471      474      472
    1258        2      471      474      577
    1259        2      472      474      577
    1260        2      472      475      473
    1261        2      472      475      487
    1262        2      472      475      773
    1263        2      473      475      487
    1264        2      473      475      773
    1265        2      487      475      773
    1266        1      479      476      576
    1267        1      479      477      480
    1268        1      480      478      500
    1269        2      440      479      476
    1270        2      440      479      477
    1271        2      440      479      722
    1272        2      476      479      477
    1273        2      476      479      722
    1274        2      477      479      722
    1275        2      477      480      478
    1276        2      477      480      484
    1277        2      477      480      776
    1278        2      478      480      484
    1279        2      478      480      776
    1280        2      484      480      776
    1281        1      172      481      445
    1282        1      450      482      455
    1283        1      445      483      460
    1284        1      465      484      480
    1285        1      187      485      470
    1286        1      167      486      450
    1287        1      470      487      475
    1288        1      192      488      465
    1289        1      497      489      504
    1290        1      498      490      503
    1291        1      211      491      502
    1292        1      212      492      501
    1293        1      216      493      497
    1294        1      215      494      498
    1295        1      499      495      502
    1296        1      500      496      501
    1297        2      443      497      489
    1298        2      443      497      493
    1299        2      443      497      535
    1300        2      489      497      493
    1301        2      489      497      535
    1302        2      493      497      535
    1303        2      448      498      468
    1304        2      448      498      490
    1305        2      448      498      494
    1306        2      468      498      490
    1307        2      468      498      494
    1308        2      490      498      494
    1309        2      473      499      495
    1310        2      473      499      525
    1311        2      473      499      779
    1312        2      495      499      525
    1313        2      495      499      779
    1314        2      525      499      779
    1315        2      458      500      478
    1316        2      458      500      496
    1317        2      458      500      780
    1318        2      478      500      496
    1319        2      478      500      780
    1320        2      496      500      780
    1321        2      441      501      461
    1322        2      441      501      492
    1323        2      441      501      496
    1324        2      461      501      492
    1325        2      461      501      496
    1326        2      492      501      496
    1327        2      466      502      491
    1328        2      466      502      495
    1329        2      466      502      518
    1330        2      491      502      495
    1331        2      491      502      518
    1332        2      495      502      518
    1333        2      451      503      471
    1334        2      451      503      490
    1335        2      451      503      782
    1336        2      471      503      490
    1337        2      471      503      782
    1338        2      490      503      782
    1339        2      456      504      489
    1340        2      456      504      548
    1341        2      456      504      781
    1342        2      489      504      548
    1343        2      489      504      781
    1344        2      548      504      781
    1345        1      114      505      516
    1346        1      263      506      521
    1347        1      382      507      536
    1348        1      531      508      541
    1349        1       94      509      536
    1350        1      243      510      541
    1351        1      402      511      516
    1352        1      521      512      551
    1353        1      516      513      573
    1354        1      516      514      517
    1355        1      517      515      569
    1356        2      505      516      511
    1357        2      505      516      513
    1358        2      505      516      514
    1359        2      511      516      513
    1360        2      511      516      514
    1361        2      513      516      514
    1362        2      514      517      515
    1363        2      514      517      553
    1364        2      514      517      555
    1365        2      515      517      553
    1366        2      515      517      555
    1367        2      553      517      555
    1368        1      502      518      521
    1369        1      521      519      522
    1370        1      522      520      570
    1371        2      506      521      512
    1372        2      506      521      518
    1373        2      506      521      519
    1374        2      512      521      518
    1375        2      512      521      519
    1376        2      518      521      519
    1377        2      519      522      520
    1378        2      519      522      554
    1379        2      519      522      558
    1380        2      520      522      554
    1381        2      520      522      558
    1382        2      554      522      558
    1383        1      526      523      575
    1384        1      526      524      527
    1385        1      499      525      527
    1386        2      363      526      523
    1387        2      363      526      524
    1388        2      363      526      653
    1389        2      523      526      524
    1390        2      523      526      653
    1391        2      524      526      653
    1392        2      524      527      525
    1393        2      524      527      554
    1394        2      524      527      846
    1395        2      525      527      554
    1396        2      525      527      846
    1397        2      554      527      846
    1398        1      531      528      576
    1399        1      531      529      532
    1400        1      532      530      572
    1401        2      508      531      528
    1402        2      508      531      529
    1403        2      508      531      798
    1404        2      528      531      529
    1405        2      528      531      798
    1406        2      529      531      798
    1407        2      529      532      530
    1408        2      529      532      555
    1409        2      529      532      841
    1410        2      530      532      555
    1411        2      530      532      841
    1412        2      555      532      841
    1413        1      536      533      573
    1414        1      536      534      537
    1415        1      497      535      537
    1416        2      507      536      509
    1417        2      507      536      533
    1418        2      507      536      534
    1419        2      509      536      533
    1420        2      509      536      534
    1421        2      533      536      534
    1422        2      534      537      535
    1423        2      534      537      556
    1424        2      534      537      560
    1425        2      535      537      556
    1426        2      535      537      560
    1427        2      556      537      560
    1428        1      541      538      574
    1429        1      541      539      542
    1430        1      542      540      570
    1431        2      508      541      510
    1432        2      508      541      538
    1433        2      508      541      539
    1434        2      510      541      538
    1435        2      510      541      539
    1436        2      538      541      539
    1437        2      539      542      540
    1438        2      539      542      557
    1439        2      539      542      559
    1440        2      540      542      557
    1441        2      540      542      559
    1442        2      557      542      559
    1443        1      546      543      575
    1444        1      546      544      547
    1445        1      547      545      571
    1446        2      367      546      543
    1447        2      367      546      544
    1448        2      367      546      649
    1449        2      543      546      544
    1450        2      543      546      649
    1451        2      544      546      649
    1452        2      544      547      545
    1453        2      544      547      559
    1454        2      544      547      845
    1455        2      545      547      559
    1456        2      545      547      845
    1457        2      559      547      845
    1458        1      504      548      551
    1459        1      551      549      552
    1460        1      552      550      572
    1461        2      512      551      548
    1462        2      512      551      549
    1463        2      512      551      794
    1464        2      548      551      549
    1465        2      548      551      794
    1466        2      549      551      794
    1467        2      549      552      550
    1468        2      549      552      556
    1469        2      549      552      848
    1470        2      550      552      556
    1471        2      550      552      848
    1472        2      556      552      848
    1473        1      244      553      517
    1474        1      522      554      527
    1475        1      517      555      532
    1476        1      537      556      552
    1477        1      259      557      542
    1478        1      239      558      522
    1479        1      542      559      547
    1480        1      264      560      537
    1481        1      569      561      576
    1482        1      570      562      575
    1483        1      283      563      574
    1484        1      284      564      573
    1485        1      288      565      569
    1486        1      287      566      570
    1487        1      571      567      574
    1488        1      572      568      573
    1489        2      463      569      515
    1490        2      463      569      561
    1491        2      463      569      565
    1492        2      515      569      561
    1493        2      515      569      565
    1494        2      561      569      565
    1495        2      520      570      540
    1496        2      520      570      562
    1497        2      520      570      566
    1498        2      540      570      562
    1499        2      540      570      566
    1500        2      562      570      566
    1501        2      453      571      545
    1502        2      453      571      567
    1503        2      453      571      851
    1504        2      545      571      567
    1505        2      545      571      851
    1506        2      567      571      851
    1507        2      530      572      550
    1508        2      530      572      568
    1509        2      530      572      852
    1510        2      550      572      568
    1511        2      550      572      852
    1512        2      568      572      852
    1513        2      513      573      533
    1514        2      513      573      564
    1515        2      513      573      568
    1516        2      533      573      564
    1517        2      533      573      568
    1518        2      564      573      568
    1519        2      446      574      538
    1520        2      446      574      563
    1521        2      446      574      567
    1522        2      538      574      563
    1523        2      538      574      567
    1524        2      563      574      567
    1525        2      523      575      543
    1526        2      523      575      562
    1527        2      523      575      854
    1528        2      543      575      562
    1529        2      543      575      854
    1530        2      562      575      854
    1531        2      476      576      528
    1532        2      476      576      561
    1533        2      476      576      853
    1534        2      528      576      561
    1535        2      528      576      853
    1536        2      561      576      853
    1537        1      474      577      588
    1538        1      335      578      593
    1539        1      608      579      742
    1540        1      603      580      613
    1541        1      454      581      608
    1542        1      315      582      613
    1543        1      588      583      762
    1544        1      593      584      623
    1545        1      588      585      645
    1546        1      588      586      589
    1547        1      589      587      641
    1548        2      577      588      583
    1549        2      577      588      585
    1550        2      577      588      586
    1551        2      583      588      585
    1552        2      583      588      586
    1553        2      585      588      586
    1554        2      586      589      587
    1555        2      586      589      625
    1556        2      586      589      627
    1557        2      587      589      625
    1558        2      587      589      627
    1559        2      625      589      627
    1560        1      593      590      718
    1561        1      593      591      594
    1562        1      594      592      642
    1563        2      578      593      584
    1564        2      578      593      590
    1565        2      578      593      591
    1566        2      584      593      590
    1567        2      584      593      591
    1568        2      590      593      591
    1569        2      591      594      592
    1570        2      591      594      626
    1571        2      591      594      630
    1572        2      592      594      626
    1573        2      592      594      630
    1574        2      626      594      630
    1575        1      598      595      647
    1576        1      598      596      599
    1577        1      599      597      715
    1578        2      595      598      596
    1579        2      595      598      723
    1580        2      595      598     1013
    1581        2      596      598      723
    1582        2      596      598     1013
    1583        2      723      598     1013
    1584        2      596      599      597
    1585        2      596      599      626
    1586        2      596      599      918
    1587        2      597      599      626
    1588        2      597      599      918
    1589        2      626      599      918
    1590        1      603      600      648
    1591        1      603      601      604
    1592        1      604      602      644
    1593        2      580      603      600
    1594        2      580      603      601
    1595        2      580      603      870
    1596        2      600      603      601
    1597        2      600      603      870
    1598        2      601      603      870
    1599        2      601      604      602
    1600        2      601      604      627
    1601        2      601      604      913
    1602        2      602      604      627
    1603        2      602      604      913
    1604        2      627      604      913
    1605        1      608      605      645
    1606        1      608      606      609
    1607        1      609      607      713
    1608        2      579      608      581
    1609        2      579      608      605
    1610        2      579      608      606
    1611        2      581      608      605
    1612        2      581      608      606
    1613        2      605      608      606
    1614        2      606      609      607
    1615        2      606      609      628
    1616        2      606      609      632
    1617        2      607      609      628
    1618        2      607      609      632
    1619        2      628      609      632
    1620        1      613      610      646
    1621        1      613      611      614
    1622        1      614      612      642
    1623        2      580      613      582
    1624        2      580      613      610
    1625        2      580      613      611
    1626        2      582      613      610
    1627        2      582      613      611
    1628        2      610      613      611
    1629        2      611      614      612
    1630        2      611      614      629
    1631        2      611      614      631
    1632        2      612      614      629
    1633        2      612      614      631
    1634        2      629      614      631
    1635        1      618      615      647
    1636        1      618      616      619
    1637        1      619      617      643
    1638        2      615      618      616
    1639        2      615      618      727
    1640        2      615      618     1009
    1641        2      616      618      727
    1642        2      616      618     1009
    1643        2      727      618     1009
    1644        2      616      619      617
    1645        2      616      619      631
    1646        2      616      619      917
    1647        2      617      619      631
    1648        2      617      619      917
    1649        2      631      619      917
    1650        1      623      620      720
    1651        1      623      621      624
    1652        1      624      622      644
    1653        2      584      623      620
    1654        2      584      623      621
    1655        2      584      623      866
    1656        2      620      623      621
    1657        2      620      623      866
    1658        2      621      623      866
    1659        2      621      624      622
    1660        2      621      624      628
    1661        2      621      624      920
    1662        2      622      624      628
    1663        2      622      624      920
    1664        2      628      624      920
    1665        1      316      625      589
    1666        1      594      626      599
    1667        1      589      627      604
    1668        1      609      628      624
    1669        1      331      629      614
    1670        1      311      630      594
    1671        1      614      631      619
    1672        1      336      632      609
    1673        1      641      633      648
    1674        1      642      634      647
    1675        1      355      635      646
    1676        1      356      636      645
    1677        1      360      637      641
    1678        1      359      638      642
    1679        1      643      639      646
    1680        1      644      640      645
    1681        2      587      641      633
    1682        2      587      641      637
    1683        2      587      641      679
    1684        2      633      641      637
    1685        2      633      641      679
    1686        2      637      641      679
    1687        2      592      642      612
    1688        2      592      642      634
    1689        2      592      642      638
    1690        2      612      642      634
    1691        2      612      642      638
    1692        2      634      642      638
    1693        2      617      643      639
    1694        2      617      643      669
    1695        2      617      643      923
    1696        2      639      643      669
    1697        2      639      643      923
    1698        2      669      643      923
    1699        2      602      644      622
    1700        2      602      644      640
    1701        2      602      644      924
    1702        2      622      644      640
    1703        2      622      644      924
    1704        2      640      644      924
    1705        2      585      645      605
    1706        2      585      645      636
    1707        2      585      645      640
    1708        2      605      645      636
    1709        2      605      645      640
    1710        2      636      645      640
    1711        2      610      646      635
    1712        2      610      646      639
    1713        2      610      646      662
    1714        2      635      646      639
    1715        2      635      646      662
    1716        2      639      646      662
    1717        2      595      647      615
    1718        2      595      647      634
    1719        2      595      647      926
    1720        2      615      647      634
    1721        2      615      647      926
    1722        2      634      647      926
    1723        2      600      648      633
    1724        2      600      648      692
    1725        2      600      648      925
    1726        2      633      648      692
    1727        2      633      648      925
    1728        2      692      648      925
    1729        1      546      649      660
    1730        1      407      650      665
    1731        1      680      651      814
    1732        1      675      652      685
    1733        1      526      653      680
    1734        1      387      654      685
    1735        1      660      655      834
    1736        1      665      656      695
    1737        1      660      657      717
    1738        1      660      658      661
    1739        1      661      659      713
    1740        2      649      660      655
    1741        2      649      660      657
    1742        2      649      660      658
    1743        2      655      660      657
    1744        2      655      660      658
    1745        2      657      660      658
    1746        2      658      661      659
    1747        2      658      661      697
    1748        2      658      661      699
    1749        2      659      661      697
    1750        2      659      661      699
    1751        2      697      661      699
    1752        1      646      662      665
    1753        1      665      663      666
    1754        1      666      664      714
    1755        2      650      665      656
    1756        2      650      665      662
    1757        2      650      665      663
    1758        2      656      665      662
    1759        2      656      665      663
    1760        2      662      665      663
    1761        2      663      666      664
    1762        2      663      666      698
    1763        2      663      666      702
    1764        2      664      666      698
    1765        2      664      666      702
    1766        2      698      666      702
    1767        1      670      667      719
    1768        1      670      668      671
    1769        1      643      669      671
    1770        2      667      670      668
    1771        2      667      670      795
    1772        2      667      670     1085
    1773        2      668      670      795
    1774        2      668      670     1085
    1775        2      795      670     1085
    1776        2      668      671      669
    1777        2      668      671      698
    1778        2      668      671      990
    1779        2      669      671      698
    1780        2      669      671      990
    1781        2      698      671      990
    1782        1      675      672      720
    1783        1      675      673      676
    1784        1      676      674      716
    1785        2      652      675      672
    1786        2      652      675      673
    1787        2      652      675      942
    1788        2      672      675      673
    1789        2      672      675      942
    1790        2      673      675      942
    1791        2      673      676      674
    1792        2      673      676      699
    1793        2      673      676      985
    1794        2      674      676      699
    1795        2      674      676      985
    1796        2      699      676      985
    1797        1      680      677      717
    1798        1      680      678      681
    1799        1      641      679      681
    1800        2      651      680      653
    1801        2      651      680      677
    1802        2      651      680      678
    1803        2      653      680      677
    1804        2      653      680      678
    1805        2      677      680      678
    1806        2      678      681      679
    1807        2      678      681      700
    1808        2      678      681      704
    1809        2      679      681      700
    1810        2      679      681      704
    1811        2      700      681      704
    1812        1      685      682      718
    1813        1      685      683      686
    1814        1      686      684      714
    1815        2      652      685      654
    1816        2      652      685      682
    1817        2      652      685      683
    1818        2      654      685      682
    1819        2      654      685      683
    1820        2      682      685      683
    1821        2      683      686      684
    1822        2      683      686      701
    1823        2      683      686      703
    1824        2      684      686      701
    1825        2      684      686      703
    1826        2      701      686      703
    1827        1      690      687      719
    1828        1      690      688      691
    1829        1      691      689      715
    1830        2      687      690      688
    1831        2      687      690      799
    1832        2      687      690     1081
    1833        2      688      690      799
    1834        2      688      690     1081
    1835        2      799      690     1081
    1836        2      688      691      689
    1837        2      688      691      703
    1838        2      688      691      989
    1839        2      689      691      703
    1840        2      689      691      989
    1841        2      703      691      989
    1842        1      648      692      695
    1843        1      695      693      696
    1844        1      696      694      716
    1845        2      656      695      692
    1846        2      656      695      693
    1847        2      656      695      938
    1848        2      692      695      693
    1849        2      692      695      938
    1850        2      693      695      938
    1851        2      693      696      694
    1852        2      693      696      700
    1853        2      693      696      992
    1854        2      694      696      700
    1855        2      694      696      992
    1856        2      700      696      992
    1857        1      388      697      661
    1858        1      666      698      671
    1859        1      661      699      676
    1860        1      681      700      696
    1861        1      403      701      686
    1862        1      383      702      666
    1863        1      686      703      691
    1864        1      408      704      681
    1865        1      713      705      720
    1866        1      714      706      719
    1867        1      427      707      718
    1868        1      428      708      717
    1869        1      432      709      713
    1870        1      431      710      714
    1871        1      715      711      718
    1872        1      716      712      717
    1873        2      607      713      659
    1874        2      607      713      705
    1875        2      607      713      709
    1876        2      659      713      705
    1877        2      659      713      709
    1878        2      705      713      709
    1879        2      664      714      684
    1880        2      664      714      706
    1881        2      664      714      710
    1882        2      684      714      706
    1883        2      684      714      710
    1884        2      706      714      710
    1885        2      597      715      689
    1886        2      597      715      711
    1887        2      597      715      995
    1888        2      689      715      711
    1889        2      689      715      995
    1890        2      711      715      995
    1891        2      674      716      694
    1892        2      674      716      712
    1893        2      674      716      996
    1894        2      694      716      712
    1895        2      694      716      996
    1896        2      712      716      996
    1897        2      657      717      677
    1898        2      657      717      708
    1899        2      657      717      712
    1900        2      677      717      708
    1901        2      677      717      712
    1902        2      708      717      712
    1903        2      590      718      682
    1904        2      590      718      707
    1905        2      590      718      711
    1906        2      682      718      707
    1907        2      682      718      711
    1908        2      707      718      711
    1909        2      667      719      687
    1910        2      667      719      706
    1911        2      667      719      998
    1912        2      687      719      706
    1913        2      687      719      998
    1914        2      706      719      998
    1915        2      620      720      672
    1916        2      620      720      705
    1917        2      620      720      997
    1918        2      672      720      705
    1919        2      672      720      997
    1920        2      705      720      997
    1921        1      330      721      732
    1922        1      479      722      737
    1923        1      598      723      752
    1924        1      747      724      757
    1925        1      310      725      752
    1926        1      459      726      757
    1927        1      618      727      732
    1928        1      737      728      767
    1929        1      732      729      789
    1930        1      732      730      733
    1931        1      733      731      785
    1932        2      721      732      727
    1933        2      721      732      729
    1934        2      721      732      730
    1935        2      727      732      729
    1936        2      727      732      730
    1937        2      729      732      730
    1938        2      730      733      731
    1939        2      730      733      769
    1940        2      730      733      771
    1941        2      731      733      769
    1942        2      731      733      771
    1943        2      769      733      771
    1944        1      737      734      862
    1945        1      737      735      738
    1946        1      738      736      786
    1947        2      722      737      728
    1948        2      722      737      734
    1949        2      722      737      735
    1950        2      728      737      734
    1951        2      728      737      735
    1952        2      734      737      735
    1953        2      735      738      736
    1954        2      735      738      770
    1955        2      735      738      774
    1956        2      736      738      770
    1957        2      736      738      774
    1958        2      770      738      774
    1959        1      742      739      791
    1960        1      742      740      743
    1961        1      743      741      859
    1962        2      579      742      739
    1963        2      579      742      740
    1964        2      579      742      869
    1965        2      739      742      740
    1966        2      739      742      869
    1967        2      740      742      869
    1968        2      740      743      741
    1969        2      740      743      770
    1970        2      740      743     1062
    1971        2      741      743      770
    1972        2      741      743     1062
    1973        2      770      743     1062
    1974        1      747      744      792
    1975        1      747      745      748
    1976        1      748      746      788
    1977        2      724      747      744
    1978        2      724      747      745
    1979        2      724      747     1014
    1980        2      744      747      745
    1981        2      744      747     1014
    1982        2      745      747     1014
    1983        2      745      748      746
    1984        2      745      748      771
    1985        2      745      748     1057
    1986        2      746      748      771
    1987        2      746      748     1057
    1988        2      771      748     1057
    1989        1      752      749      789
    1990        1      752      750      753
    1991        1      753      751      857
    1992        2      723      752      725
    1993        2      723      752      749
    1994        2      723      752      750
    1995        2      725      752      749
    1996        2      725      752      750
    1997        2      749      752      750
    1998        2      750      753      751
    1999        2      750      753      772
    2000        2      750      753      776
    2001        2      751      753      772
    2002        2      751      753      776
    2003        2      772      753      776
    2004        1      757      754      790
    2005        1      757      755      758
    2006        1      758      756      786
    2007        2      724      757      726
    2008        2      724      757      754
    2009        2      724      757      755
    2010        2      726      757      754
    2011        2      726      757      755
    2012        2      754      757      755
    2013        2      755      758      756
    2014        2      755      758      773
    2015        2      755      758      775
    2016        2      756      758      773
    2017        2      756      758      775
    2018        2      773      758      775
    2019        1      762      759      791
    2020        1      762      760      763
    2021        1      763      761      787
    2022        2      583      762      759
    2023        2      583      762      760
    2024        2      583      762      865
    2025        2      759      762      760
    2026        2      759      762      865
    2027        2      760      762      865
    2028        2      760      763      761
    2029        2      760      763      775
    2030        2      760      763     1061
    2031        2      761      763      775
    2032        2      761      763     1061
    2033        2      775      763     1061
    2034        1      767      764      864
    2035        1      767      765      768
    2036        1      768      766      788
    2037        2      728      767      764
    2038        2      728      767      765
    2039        2      728      767     1010
    2040        2      764      767      765
    2041        2      764      767     1010
    2042        2      765      767     1010
    2043        2      765      768      766
    2044        2      765      768      772
    2045        2      765      768     1064
    2046        2      766      768      772
    2047        2      766      768     1064
    2048        2      772      768     1064
    2049        1      460      769      733
    2050        1      738      770      743
    2051        1      733      771      748
    2052        1      753      772      768
    2053        1      475      773      758
    2054        1      455      774      738
    2055        1      758      775      763
    2056        1      480      776      753
    2057        1      785      777      792
    2058        1      786      778      791
    2059        1      499      779      790
    2060        1      500      780      789
    2061        1      504      781      785
    2062        1      503      782      786
    2063        1      787      783      790
    2064        1      788      784      789
    2065        2      731      785      777
    2066        2      731      785      781
    2067        2      731      785      823
    2068        2      777      785      781
    2069        2      777      785      823
    2070        2      781      785      823
    2071        2      736      786      756
    2072        2      736      786      778
    2073        2      736      786      782
    2074        2      756      786      778
    2075        2      756      786      782
    2076        2      778      786      782
    2077        2      761      787      783
    2078        2      761      787      813
    2079        2      761      787     1067
    2080        2      783      787      813
    2081        2      783      787     1067
    2082        2      813      787     1067
    2083        2      746      788      766
    2084        2      746      788      784
    2085        2      746      788     1068
    2086        2      766      788      784
    2087        2      766      788     1068
    2088        2      784      788     1068
    2089        2      729      789      749
    2090        2      729      789      780
    2091        2      729      789      784
    2092        2      749      789      780
    2093        2      749      789      784
    2094        2      780      789      784
    2095        2      754      790      779
    2096        2      754      790      783
    2097        2      754      790      806
    2098        2      779      790      783
    2099        2      779      790      806
    2100        2      783      790      806
    2101        2      739      791      759
    2102        2      739      791      778
    2103        2      739      791     1070
    2104        2      759      791      778
    2105        2      759      791     1070
    2106        2      778      791     1070
    2107        2      744      792      777
    2108        2      744      792      836
    2109        2      744      792     1069
    2110        2      777      792      836
    2111        2      777      792     1069
    2112        2      836      792     1069
    2113        1      402      793      804
    2114        1      551      794      809
    2115        1      670      795      824
    2116        1      819      796      829
    2117        1      382      797      824
    2118        1      531      798      829
    2119        1      690      799      804
    2120        1      809      800      839
    2121        1      804      801      861
    2122        1      804      802      805
    2123        1      805      803      857
    2124        2      793      804      799
    2125        2      793      804      801
    2126        2      793      804      802
    2127        2      799      804      801
    2128        2      799      804      802
    2129        2      801      804      802
    2130        2      802      805      803
    2131        2      802      805      841
    2132        2      802      805      843
    2133        2      803      805      841
    2134        2      803      805      843
    2135        2      841      805      843
    2136        1      790      806      809
    2137        1      809      807      810
    2138        1      810      808      858
    2139        2      794      809      800
    2140        2      794      809      806
    2141        2      794      809      807
    2142        2      800      809      806
    2143        2      800      809      807
    2144        2      806      809      807
    2145        2      807      810      808
    2146        2      807      810      842
    2147        2      807      810      846
    2148        2      808      810      842
    2149        2      808      810      846
    2150        2      842      810      846
    2151        1      814      811      863
    2152        1      814      812      815
    2153        1      787      813      815
    2154        2      651      814      811
    2155        2      651      814      812
    2156        2      651      814      941
    2157        2      811      814      812
    2158        2      811      814      941
    2159        2      812      814      941
    2160        2      812      815      813
    2161        2      812      815      842
    2162        2      812      815     1134
    2163        2      813      815      842
    2164        2      813      815     1134
    2165        2      842      815     1134
    2166        1      819      816      864
    2167        1      819      817      820
    2168        1      820      818      860
    2169        2      796      819      816
    2170        2      796      819      817
    2171        2      796      819     1086
    2172        2      816      819      817
    2173        2      816      819     1086
    2174        2      817      819     1086
    2175        2      817      820      818
    2176        2      817      820      843
    2177        2      817      820     1129
    2178        2      818      820      843
    2179        2      818      820     1129
    2180        2      843      820     1129
    2181        1      824      821      861
    2182        1      824      822      825
    2183        1      785      823      825
    2184        2      795      824      797
    2185        2      795      824      821
    2186        2      795      824      822
    2187        2      797      824      821
    2188        2      797      824      822
    2189        2      821      824      822
    2190        2      822      825      823
    2191        2      822      825      844
    2192        2      822      825      848
    2193        2      823      825      844
    2194        2      823      825      848
    2195        2      844      825      848
    2196        1      829      826      862
    2197        1      829      827      830
    2198        1      830      828      858
    2199        2      796      829      798
    2200        2      796      829      826
    2201        2      796      829      827
    2202        2      798      829      826
    2203        2      798      829      827
    2204        2      826      829      827
    2205        2      827      830      828
    2206        2      827      830      845
    2207        2      827      830      847
    2208        2      828      830      845
    2209        2      828      830      847
    2210        2      845      830      847
    2211        1      834      831      863
    2212        1      834      832      835
    2213        1      835      833      859
    2214        2      655      834      831
    2215        2      655      834      832
    2216        2      655      834      937
    2217        2      831      834      832
    2218        2      831      834      937
    2219        2      832      834      937
    2220        2      832      835      833
    2221        2      832      835      847
    2222        2      832      835     1133
    2223        2      833      835      847
    2224        2      833      835     1133
    2225        2      847      835     1133
    2226        1      792      836      839
    2227        1      839      837      840
    2228        1      840      838      860
    2229        2      800      839      836
    2230        2      800      839      837
    2231        2      800      839     1082
    2232        2      836      839      837
    2233        2      836      839     1082
    2234        2      837      839     1082
    2235        2      837      840      838
    2236        2      837      840      844
    2237        2      837      840     1136
    2238        2      838      840      844
    2239        2      838      840     1136
    2240        2      844      840     1136
    2241        1      532      841      805
    2242        1      810      842      815
    2243        1      805      843      820
    2244        1      825      844      840
    2245        1      547      845      830
    2246        1      527      846      810
    2247        1      830      847      835
    2248        1      552      848      825
    2249        1      857      849      864
    2250        1      858      850      863
    2251        1      571      851      862
    2252        1      572      852      861
    2253        1      576      853      857
    2254        1      575      854      858
    2255        1      859      855      862
    2256        1      860      856      861
    2257        2      751      857      803
    2258        2      751      857      849
    2259        2      751      857      853
    2260        2      803      857      849
    2261        2      803      857      853
    2262        2      849      857      853
    2263        2      808      858      828
    2264        2      808      858      850
    2265        2      808      858      854
    2266        2      828      858      850
    2267        2      828      858      854
    2268        2      850      858      854
    2269        2      741      859      833
    2270        2      741      859      855
    2271        2      741      859     1139
    2272        2      833      859      855
    2273        2      833      859     1139
    2274        2      855      859     1139
    2275        2      818      860      838
    2276        2      818      860      856
    2277        2      818      860     1140
    2278        2      838      860      856
    2279        2      838      860     1140
    2280        2      856      860     1140
    2281        2      801      861      821
    2282        2      801      861      852
    2283        2      801      861      856
    2284        2      821      861      852
    2285        2      821      861      856
    2286        2      852      861      856
    2287        2      734      862      826
    2288        2      734      862      851
    2289        2      734      862      855
    2290        2      826      862      851
    2291        2      826      862      855
    2292        2      851      862      855
    2293        2      811      863      831
    2294        2      811      863      850
    2295        2      811      863     1142
    2296        2      831      863      850
    2297        2      831      863     1142
    2298        2      850      863     1142
    2299        2      764      864      816
    2300        2      764      864      849
    2301        2      764      864     1141
    2302        2      816      864      849
    2303        2      816      864     1141
    2304        2      849      864     1141
    2305        1      762      865      876
    2306        1      623      866      881
    2307        1      896      867     1030
    2308        1      891      868      901
    2309        1      742      869      896
    2310        1      603      870      901
    2311        1      876      871     1050
    2312        1      881      872      911
    2313        1      876      873      933
    2314        1      876      874      877
    2315        1      877      875      929
    2316        2      865      876      871
    2317        2      865      876      873
    2318        2      865      876      874
    2319        2      871      876      873
    2320        2      871      876      874
    2321        2      873      876      874
    2322        2      874      877      875
    2323        2      874      877      913
    2324        2      874      877      915
    2325        2      875      877      913
    2326        2      875      877      915
    2327        2      913      877      915
    2328        1      881      878     1006
    2329        1      881      879      882
    2330        1      882      880      930
    2331        2      866      881      872
    2332        2      866      881      878
    2333        2      866      881      879
    2334        2      872      881      878
    2335        2      872      881      879
    2336        2      878      881      879
    2337        2      879      882      880
    2338        2      879      882      914
    2339        2      879      882      918
    2340        2      880      882      914
    2341        2      880      882      918
    2342        2      914      882      918
    2343        1      886      883      935
    2344        1      886      884      887
    2345        1      887      885     1003
    2346        2      149      886      883
    2347        2      149      886      884
    2348        2      149      886     1011
    2349        2      883      886      884
    2350        2      883      886     1011
    2351        2      884      886     1011
    2352        2       54      887      884
    2353        2       54      887      885
    2354        2       54      887      914
    2355        2      884      887      885
    2356        2      884      887      914
    2357        2      885      887      914
    2358        1      891      888      936
    2359        1      891      889      892
    2360        1      892      890      932
    2361        2        6      891      868
    2362        2        6      891      888
    2363        2        6      891      889
    2364        2      868      891      888
    2365        2      868      891      889
    2366        2      888      891      889
    2367        2       49      892      889
    2368        2       49      892      890
    2369        2       49      892      915
    2370        2      889      892      890
    2371        2      889      892      915
    2372        2      890      892      915
    2373        1      896      893      933
    2374        1      896      894      897
    2375        1      897      895     1001
    2376        2      867      896      869
    2377        2      867      896      893
    2378        2      867      896      894
    2379        2      869      896      893
    2380        2      869      896      894
    2381        2      893      896      894
    2382        2      894      897      895
    2383        2      894      897      916
    2384        2      894      897      920
    2385        2      895      897      916
    2386        2      895      897      920
    2387        2      916      897      920
    2388        1      901      898      934
    2389        1      901      899      902
    2390        1      902      900      930
    2391        2      868      901      870
    2392        2      868      901      898
    2393        2      868      901      899
    2394        2      870      901      898
    2395        2      870      901      899
    2396        2      898      901      899
    2397        2      899      902      900
    2398        2      899      902      917
    2399        2      899      902      919
    2400        2      900      902      917
    2401        2      900      902      919
    2402        2      917      902      919
    2403        1      906      903      935
    2404        1      906      904      907
    2405        1      907      905      931
    2406        2      145      906      903
    2407        2      145      906      904
    2408        2      145      906     1015
    2409        2      903      906      904
    2410        2      903      906     1015
    2411        2      904      906     1015
    2412        2       53      907      904
    2413        2       53      907      905
    2414        2       53      907      919
    2415        2      904      907      905
    2416        2      904      907      919
    2417        2      905      907      919
    2418        1      911      908     1008
    2419        1      911      909      912
    2420        1      912      910      932
    2421        2        2      911      872
    2422        2        2      911      908
    2423        2        2      911      909
    2424        2      872      911      908
    2425        2      872      911      909
    2426        2      908      911      909
    2427        2       56      912      909
    2428        2       56      912      910
    2429        2       56      912      916
    2430        2      909      912      910
    2431        2      909      912      916
    2432        2      910      912      916
    2433        1      604      913      877
    2434        1      882      914      887
    2435        1      877      915      892
    2436        1      897      916      912
    2437        1      619      917      902
    2438        1      599      918      882
    2439        1      902      919      907
    2440        1      624      920      897
    2441        1      929      921      936
    2442        1      930      922      935
    2443        1      643      923      934
    2444        1      644      924      933
    2445        1      648      925      929
    2446        1      647      926      930
    2447        1      931      927      934
    2448        1      932      928      933
    2449        2      875      929      921
    2450        2      875      929      925
    2451        2      875      929      967
    2452        2      921      929      925
    2453        2      921      929      967
    2454        2      925      929      967
    2455        2      880      930      900
    2456        2      880      930      922
    2457        2      880      930      926
    2458        2      900      930      922
    2459        2      900      930      926
    2460        2      922      930      926
    2461        2       59      931      905
    2462        2       59      931      927
    2463        2       59      931      957
    2464        2      905      931      927
    2465        2      905      931      957
    2466        2      927      931      957
    2467        2       60      932      890
    2468        2       60      932      910
    2469        2       60      932      928
    2470        2      890      932      910
    2471        2      890      932      928
    2472        2      910      932      928
    2473        2      873      933      893
    2474        2      873      933      924
    2475        2      873      933      928
    2476        2      893      933      924
    2477        2      893      933      928
    2478        2      924      933      928
    2479        2      898      934      923
    2480        2      898      934      927
    2481        2      898      934      950
    2482        2      923      934      927
    2483        2      923      934      950
    2484        2      927      934      950
    2485        2       62      935      883
    2486        2       62      935      903
    2487        2       62      935      922
    2488        2      883      935      903
    2489        2      883      935      922
    2490        2      903      935      922
    2491        2       61      936      888
    2492        2       61      936      921
    2493        2       61      936      980
    2494        2      888      936      921
    2495        2      888      936      980
    2496        2      921      936      980
    2497        1      834      937      948
    2498        1      695      938      953
    2499        1      968      939     1102
    2500        1      963      940      973
    2501        1      814      941      968
    2502        1      675      942      973
    2503        1      948      943     1122
    2504        1      953      944      983
    2505        1      948      945     1005
    2506        1      948      946      949
    2507        1      949      947     1001
    2508        2      937      948      943
    2509        2      937      948      945
    2510        2      937      948      946
    2511        2      943      948      945
    2512        2      943      948      946
    2513        2      945      948      946
    2514        2      946      949      947
    2515        2      946      949      985
    2516        2      946      949      987
    2517        2      947      949      985
    2518        2      947      949      987
    2519        2      985      949      987
    2520        1      934      950      953
    2521        1      953      951      954
    2522        1      954      952     1002
    2523        2      938      953      944
    2524        2      938      953      950
    2525        2      938      953      951
    2526        2      944      953      950
    2527        2      944      953      951
    2528        2      950      953      951
    2529        2      951      954      952
    2530        2      951      954      986
    2531        2      951      954      990
    2532        2      952      954      986
    2533        2      952      954      990
    2534        2      986      954      990
    2535        1      958      955     1007
    2536        1      958      956      959
    2537        1      931      957      959
    2538        2      221      958      955
    2539        2      221      958      956
    2540        2      221      958     1083
    2541        2      955      958      956
    2542        2      955      958     1083
    2543        2      956      958     1083
    2544        2      126      959      956
    2545        2      126      959      957
    2546        2      126      959      986
    2547        2      956      959      957
    2548        2      956      959      986
    2549        2      957      959      986
    2550        1      963      960     1008
    2551        1      963      961      964
    2552        1      964      962     1004
    2553        2       78      963      940
    2554        2       78      963      960
    2555        2       78      963      961
    2556        2      940      963      960
    2557        2      940      963      961
    2558        2      960      963      961
    2559        2      121      964      961
    2560        2      121      964      962
    2561        2      121      964      987
    2562        2      961      964      962
    2563        2      961      964      987
    2564        2      962      964      987
    2565        1      968      965     1005
    2566        1      968      966      969
    2567        1      929      967      969
    2568        2      939      968      941
    2569        2      939      968      965
    2570        2      939      968      966
    2571        2      941      968      965
    2572        2      941      968      966
    2573        2      965      968      966
    2574        2      966      969      967
    2575        2      966      969      988
    2576        2      966      969      992
    2577        2      967      969      988
    2578        2      967      969      992
    2579        2      988      969      992
    2580        1      973      970     1006
    2581        1      973      971      974
    2582        1      974      972     1002
    2583        2      940      973      942
    2584        2      940      973      970
    2585        2      940      973      971
    2586        2      942      973      970
    2587        2      942      973      971
    2588        2      970      973      971
    2589        2      971      974      972
    2590        2      971      974      989
    2591        2      971      974      991
    2592        2      972      974      989
    2593        2      972      974      991
    2594        2      989      974      991
    2595        1      978      975     1007
    2596        1      978      976      979
    2597        1      979      977     1003
    2598        2      217      978      975
    2599        2      217      978      976
    2600        2      217      978     1087
    2601        2      975      978      976
    2602        2      975      978     1087
    2603        2      976      978     1087
    2604        2      125      979      976
    2605        2      125      979      977
    2606        2      125      979      991
    2607        2      976      979      977
    2608        2      976      979      991
    2609        2      977      979      991
    2610        1      936      980      983
    2611        1      983      981      984
    2612        1      984      982     1004
    2613        2       74      983      944
    2614        2       74      983      980
    2615        2       74      983      981
    2616        2      944      983      980
    2617        2      944      983      981
    2618        2      980      983      981
    2619        2      128      984      981
    2620        2      128      984      982
    2621        2      128      984      988
    2622        2      981      984      982
    2623        2      981      984      988
    2624        2      982      984      988
    2625        1      676      985      949
    2626        1      954      986      959
    2627        1      949      987      964
    2628        1      969      988      984
    2629        1      691      989      974
    2630        1      671      990      954
    2631        1      974      991      979
    2632        1      696      992      969
    2633        1     1001      993     1008
    2634        1     1002      994     1007
    2635        1      715      995     1006
    2636        1      716      996     1005
    2637        1      720      997     1001
    2638        1      719      998     1002
    2639        1     1003      999     1006
    2640        1     1004     1000     1005
    2641        2      895     1001      947
    2642        2      895     1001      993
    2643        2      895     1001      997
    2644        2      947     1001      993
    2645        2      947     1001      997
    2646        2      993     1001      997
    2647        2      952     1002      972
    2648        2      952     1002      994
    2649        2      952     1002      998
    2650        2      972     1002      994
    2651        2      972     1002      998
    2652        2      994     1002      998
    2653        2      131     1003      885
    2654        2      131     1003      977
    2655        2      131     1003      999
    2656        2      885     1003      977
    2657        2      885     1003      999
    2658        2      977     1003      999
    2659        2      132     1004      962
    2660        2      132     1004      982
    2661        2      132     1004     1000
    2662        2      962     1004      982
    2663        2      962     1004     1000
    2664        2      982     1004     1000
    2665        2      945     1005      965
    2666        2      945     1005      996
    2667        2      945     1005     1000
    2668        2      965     1005      996
    2669        2      965     1005     1000
    2670        2      996     1005     1000
    2671        2      878     1006      970
    2672        2      878     1006      995
    2673        2      878     1006      999
    2674        2      970     1006      995
    2675        2      970     1006      999
    2676        2      995     1006      999
    2677        2      134     1007      955
    2678        2      134     1007      975
    2679        2      134     1007      994
    2680        2      955     1007      975
    2681        2      955     1007      994
    2682        2      975     1007      994
    2683        2      133     1008      908
    2684        2      133     1008      960
    2685        2      133     1008      993
    2686        2      908     1008      960
    2687        2      908     1008      993
    2688        2      960     1008      993
    2689        1      618     1009     1020
    2690        1      767     1010     1025
    2691        1      886     1011     1040
    2692        1     1035     1012     1045
    2693        1      598     1013     1040
    2694        1      747     1014     1045
    2695        1      906     1015     1020
    2696        1     1025     1016     1055
    2697        1     1020     1017     1077
    2698        1     1020     1018     1021
    2699        1     1021     1019     1073
    2700        2     1009     1020     1015
    2701        2     1009     1020     1017
    2702        2     1009     1020     1018
    2703        2     1015     1020     1017
    2704        2     1015     1020     1018
    2705        2     1017     1020     1018
    2706        2     1018     1021     1019
    2707        2     1018     1021     1057
    2708        2     1018     1021     1059
    2709        2     1019     1021     1057
    2710        2     1019     1021     1059
    2711        2     1057     1021     1059
    2712        1     1025     1022     1150
    2713        1     1025     1023     1026
    2714        1     1026     1024     1074
    2715        2     1010     1025     1016
    2716        2     1010     1025     1022
    2717        2     1010     1025     1023
    2718        2     1016     1025     1022
    2719        2     1016     1025     1023
    2720        2     1022     1025     1023
    2721        2     1023     1026     1024
    2722        2     1023     1026     1058
    2723        2     1023     1026     1062
    2724        2     1024     1026     1058
    2725        2     1024     1026     1062
    2726        2     1058     1026     1062
    2727        1     1030     1027     1079
    2728        1     1030     1028     1031
    2729        1     1031     1029     1147
    2730        2        5     1030      867
    2731        2        5     1030     1027
    2732        2        5     1030     1028
    2733        2      867     1030     1027
    2734        2      867     1030     1028
    2735        2     1027     1030     1028
    2736        2      198     1031     1028
    2737        2      198     1031     1029
    2738        2      198     1031     1058
    2739        2     1028     1031     1029
    2740        2     1028     1031     1058
    2741        2     1029     1031     1058
    2742        1     1035     1032     1080
    2743        1     1035     1033     1036
    2744        1     1036     1034     1076
    2745        2      150     1035     1012
    2746        2      150     1035     1032
    2747        2      150     1035     1033
    2748        2     1012     1035     1032
    2749        2     1012     1035     1033
    2750        2     1032     1035     1033
    2751        2      193     1036     1033
    2752        2      193     1036     1034
    2753        2      193     1036     1059
    2754        2     1033     1036     1034
    2755        2     1033     1036     1059
    2756        2     1034     1036     1059
    2757        1     1040     1037     1077
    2758        1     1040     1038     1041
    2759        1     1041     1039     1145
    2760        2     1011     1040     1013
    2761        2     1011     1040     1037
    2762        2     1011     1040     1038
    2763        2     1013     1040     1037
    2764        2     1013     1040     1038
    2765        2     1037     1040     1038
    2766        2     1038     1041     1039
    2767        2     1038     1041     1060
    2768        2     1038     1041     1064
    2769        2     1039     1041     1060
    2770        2     1039     1041     1064
    2771        2     1060     1041     1064
    2772        1     1045     1042     1078
    2773        1     1045     1043     1046
    2774        1     1046     1044     1074
    2775        2     1012     1045     1014
    2776        2     1012     1045     1042
    2777        2     1012     1045     1043
    2778        2     1014     1045     1042
    2779        2     1014     1045     1043
    2780        2     1042     1045     1043
    2781        2     1043     1046     1044
    2782        2     1043     1046     1061
    2783        2     1043     1046     1063
    2784        2     1044     1046     1061
    2785        2     1044     1046     1063
    2786        2     1061     1046     1063
    2787        1     1050     1047     1079
    2788        1     1050     1048     1051
    2789        1     1051     1049     1075
    2790        2        1     1050      871
    2791        2        1     1050     1047
    2792        2        1     1050     1048
    2793        2      871     1050     1047
    2794        2      871     1050     1048
    2795        2     1047     1050     1048
    2796        2      197     1051     1048
    2797        2      197     1051     1049
    2798        2      197     1051     1063
    2799        2     1048     1051     1049
    2800        2     1048     1051     1063
    2801        2     1049     1051     1063
    2802        1     1055     1052     1152
    2803        1     1055     1053     1056
    2804        1     1056     1054     1076
    2805        2      146     1055     1016
    2806        2      146     1055     1052
    2807        2      146     1055     1053
    2808        2     1016     1055     1052
    2809        2     1016     1055     1053
    2810        2     1052     1055     1053
    2811        2      200     1056     1053
    2812        2      200     1056     1054
    2813        2      200     1056     1060
    2814        2     1053     1056     1054
    2815        2     1053     1056     1060
    2816        2     1054     1056     1060
    2817        1      748     1057     1021
    2818        1     1026     1058     1031
    2819        1     1021     1059     1036
    2820        1     1041     1060     1056
    2821        1      763     1061     1046
    2822        1      743     1062     1026
    2823        1     1046     1063     1051
    2824        1      768     1064     1041
    2825        1     1073     1065     1080
    2826        1     1074     1066     1079
    2827        1      787     1067     1078
    2828        1      788     1068     1077
    2829        1      792     1069     1073
    2830        1      791     1070     1074
    2831        1     1075     1071     1078
    2832        1     1076     1072     1077
    2833        2     1019     1073     1065
    2834        2     1019     1073     1069
    2835        2     1019     1073     1111
    2836        2     1065     1073     1069
    2837        2     1065     1073     1111
    2838        2     1069     1073     1111
    2839        2     1024     1074     1044
    2840        2     1024     1074     1066
    2841        2     1024     1074     1070
    2842        2     1044     1074     1066
    2843        2     1044     1074     1070
    2844        2     1066     1074     1070
    2845        2      203     1075     1049
    2846        2      203     1075     1071
    2847        2      203     1075     1101
    2848        2     1049     1075     1071
    2849        2     1049     1075     1101
    2850        2     1071     1075     1101
    2851        2      204     1076     1034
    2852        2      204     1076     1054
    2853        2      204     1076     1072
    2854        2     1034     1076     1054
    2855        2     1034     1076     1072
    2856        2     1054     1076     1072
    2857        2     1017     1077     1037
    2858        2     1017     1077     1068
    2859        2     1017     1077     1072
    2860        2     1037     1077     1068
    2861        2     1037     1077     1072
    2862        2     1068     1077     1072
    2863        2     1042     1078     1067
    2864        2     1042     1078     1071
    2865        2     1042     1078     1094
    2866        2     1067     1078     1071
    2867        2     1067     1078     1094
    2868        2     1071     1078     1094
    2869        2      206     1079     1027
    2870        2      206     1079     1047
    2871        2      206     1079     1066
    2872        2     1027     1079     1047
    2873        2     1027     1079     1066
    2874        2     1047     1079     1066
    2875        2      205     1080     1032
    2876        2      205     1080     1065
    2877        2      205     1080     1124
    2878        2     1032     1080     1065
    2879        2     1032     1080     1124
    2880        2     1065     1080     1124
    2881        1      690     1081     1092
    2882        1      839     1082     1097
    2883        1      958     1083     1112
    2884        1     1107     1084     1117
    2885        1      670     1085     1112
    2886        1      819     1086     1117
    2887        1      978     1087     1092
    2888        1     1097     1088     1127
    2889        1     1092     1089     1149
    2890        1     1092     1090     1093
    2891        1     1093     1091     1145
    2892        2     1081     1092     1087
    2893        2     1081     1092     1089
    2894        2     1081     1092     1090
    2895        2     1087     1092     1089
    2896        2     1087     1092     1090
    2897        2     1089     1092     1090
    2898        2     1090     1093     1091
    2899        2     1090     1093     1129
    2900        2     1090     1093     1131
    2901        2     1091     1093     1129
    2902        2     1091     1093     1131
    2903        2     1129     1093     1131
    2904        1     1078     1094     1097
    2905        1     1097     1095     1098
    2906        1     1098     1096     1146
    2907        2     1082     1097     1088
    2908        2     1082     1097     1094
    2909        2     1082     1097     1095
    2910        2     1088     1097     1094
    2911        2     1088     1097     1095
    2912        2     1094     1097     1095
    2913        2     1095     1098     1096
    2914        2     1095     1098     1130
    2915        2     1095     1098     1134
    2916        2     1096     1098     1130
    2917        2     1096     1098     1134
    2918        2     1130     1098     1134
    2919        1     1102     1099     1151
    2920        1     1102     1100     1103
    2921        1     1075     1101     1103
    2922        2       77     1102      939
    2923        2       77     1102     1099
    2924        2       77     1102     1100
    2925        2      939     1102     1099
    2926        2      939     1102     1100
    2927        2     1099     1102     1100
    2928        2      270     1103     1100
    2929        2      270     1103     1101
    2930        2      270     1103     1130
    2931        2     1100     1103     1101
    2932        2     1100     1103     1130
    2933        2     1101     1103     1130
    2934        1     1107     1104     1152
    2935        1     1107     1105     1108
    2936        1     1108     1106     1148
    2937        2      222     1107     1084
    2938        2      222     1107     1104
    2939        2      222     1107     1105
    2940        2     1084     1107     1104
    2941        2     1084     1107     1105
    2942        2     1104     1107     1105
    2943        2      265     1108     1105
    2944        2      265     1108     1106
    2945        2      265     1108     1131
    2946        2     1105     1108     1106
    2947        2     1105     1108     1131
    2948        2     1106     1108     1131
    2949        1     1112     1109     1149
    2950        1     1112     1110     1113
    2951        1     1073     1111     1113
    2952        2     1083     1112     1085
    2953        2     1083     1112     1109
    2954        2     1083     1112     1110
    2955        2     1085     1112     1109
    2956        2     1085     1112     1110
    2957        2     1109     1112     1110
    2958        2     1110     1113     1111
    2959        2     1110     1113     1132
    2960        2     1110     1113     1136
    2961        2     1111     1113     1132
    2962        2     1111     1113     1136
    2963        2     1132     1113     1136
    2964        1     1117     1114     1150
    2965        1     1117     1115     1118
    2966        1     1118     1116     1146
    2967        2     1084     1117     1086
    2968        2     1084     1117     1114
    2969        2     1084     1117     1115
    2970        2     1086     1117     1114
    2971        2     1086     1117     1115
    2972        2     1114     1117     1115
    2973        2     1115     1118     1116
    2974        2     1115     1118     1133
    2975        2     1115     1118     1135
    2976        2     1116     1118     1133
    2977        2     1116     1118     1135
    2978        2     1133     1118     1135
    2979        1     1122     1119     1151
    2980        1     1122     1120     1123
    2981        1     1123     1121     1147
    2982        2       73     1122      943
    2983        2       73     1122     1119
    2984        2       73     1122     1120
    2985        2      943     1122     1119
    2986        2      943     1122     1120
    2987        2     1119     1122     1120
    2988        2      269     1123     1120
    2989        2      269     1123     1121
    2990        2      269     1123     1135
    2991        2     1120     1123     1121
    2992        2     1120     1123     1135
    2993        2     1121     1123     1135
    2994        1     1080     1124     1127
    2995        1     1127     1125     1128
    2996        1     1128     1126     1148
    2997        2      218     1127     1088
    2998        2      218     1127     1124
    2999        2      218     1127     1125
    3000        2     1088     1127     1124
    3001        2     1088     1127     1125
    3002        2     1124     1127     1125
    3003        2      272     1128     1125
    3004        2      272     1128     1126
    3005        2      272     1128     1132
    3006        2     1125     1128     1126
    3007        2     1125     1128     1132
    3008        2     1126     1128     1132
    3009        1      820     1129     1093
    3010        1     1098     1130     1103
    3011        1     1093     1131     1108
    3012        1     1113     1132     1128
    3013        1      835     1133     1118
    3014        1      815     1134     1098
    3015        1     1118     1135     1123
    3016        1      840     1136     1113
    3017        1     1145     1137     1152
    3018        1     1146     1138     1151
    3019        1      859     1139     1150
    3020        1      860     1140     1149
    3021        1      864     1141     1145
    3022        1      863     1142     1146
    3023        1     1147     1143     1150
    3024        1     1148     1144     1149
    3025        2     1039     1145     1091
    3026        2     1039     1145     1137
    3027        2     1039     1145     1141
    3028        2     1091     1145     1137
    3029        2     1091     1145     1141
    3030        2     1137     1145     1141
    3031        2     1096     1146     1116
    3032        2     1096     1146     1138
    3033        2     1096     1146     1142
    3034        2     1116     1146     1138
    3035        2     1116     1146     1142
    3036        2     1138     1146     1142
    3037        2      275     1147     1029
    3038        2      275     1147     1121
    3039        2      275     1147     1143
    3040        2     1029     1147     1121
    3041        2     1029     1147     1143
    3042        2     1121     1147     1143
    3043        2      276     1148     1106
    3044        2      276     1148     1126
    3045        2      276     1148     1144
    3046        2     1106     1148     1126
    3047        2     1106     1148     1144
    3048        2     1126     1148     1144
    3049        2     1089     1149     1109
    3050        2     1089     1149     1140
    3051        2     1089     1149     1144
    3052        2     1109     1149     1140
    3053        2     1109     1149     1144
    3054        2     1140     1149     1144
    3055        2     1022     1150     1114
    3056        2     1022     1150     1139
    3057        2     1022     1150     1143
    3058        2     1114     1150     1139
    3059        2     1114     1150     1143
    3060        2     1139     1150     1143
    3061        2      278     1151     1099
    3062        2      278     1151     1119
    3063        2      278     1151     1138
    3064        2     1099     1151     1119
    3065        2     1099     1151     1138
    3066        2     1119     1151     1138
    3067        2      277     1152     1052
    3068        2      277     1152     1104
    3069        2      277     1152     1137
    3070        2     1052     1152     1104
    3071        2     1052     1152     1137
    3072        2     1104     1152     1137
3073 3 1153 1154 1155
3074 4 1153 1154 1156
3075 5 1154 1156 1157
3076 6 1154 1156 1158
3077 7 1156 1158 1159
3078 8 1154 1155 1160
3079 9 1154 1155 1161
3080 10 1155 1161 1162
3081 11 1155 1160 1163
3082 12 1160 1163 1164
3083 13 1155 1161 1165
3084 14 1161 1165 1166
3085 15 1160 1163 1167
3086 16 1163 1167 1168
3087 17 1157 1156 1158
3088 18 1162 1161 1165
3089 19 1164 1163 1167
3090 20 1155 1160 1158
3091 21 1166 1165 1167
3092 22 1160 1155 1161
3093 23 1155 1154 1156
3094 24 1161 1165 1167
3095 25 1159 1158 1160
3096 26 1163 1167 1165
3097 27 1156 1158 1160
3098 28 1158 1160 1163
3099 29 1165 1167 1168
3100 3 1169 1170 1171
3101 4 1169 1170 1172
3102 5 1170 1172 1173
3103 6 1170 1172 1174
3104 7 1172 1174 1175
3105 8 1170 1171 1176
3106 9 1170 1171 1177
3107 10 1171 1177 1178
3108 11 1171 1176 1179
3109 12 1176 1179 1180
3110 13 1171 1177 1181
3111 14 1177 1181 1182
3112 15 1176 1179 1183
3113 16 1179 1183 1184
3114 17 1173 1172 1174
3115 18 1178 1177 1181
3116 19 1180 1179 1183
3117 20 1171 1176 1174
3118 21 1182 1181 1183
3119 22 1176 1171 1177
3120 23 1171 1170 1172
3121 24 1177 1181 1183
3122 25 1175 1174 1176
3123 26 1179 1183 1181
3124 27 1172 1174 1176
3125 28 1174 1176 1179
3126 29 1181 1183 1184
3127 3 1185 1186 1187
3128 4 1185 1186 1188
3129 5 1186 1188 1189
3130 6 1186 1188 1190
3131 7 1188 1190 1191
3132 8 1186 1187 1192
3133 9 1186 1187 1193
3134 10 1187 1193 1194
3135 11 1187 1192 1195
3136 12 1192 1195 1196
3137 13 1187 1193 1197
3138 14 1193 1197 1198
3139 15 1192 1195 1199
3140 16 1195 1199 1200
3141 17 1189 1188 1190
3142 18 1194 1193 1197
3143 19 1196 1195 1199
3144 20 1187 1192 1190
3145 21 1198 1197 1199
3146 22 1192 1187 1193
3147 23 1187 1186 1188
3148 24 1193 1197 1199
3149 25 1191 1190 1192
3150 26 1195 1199 1197
3151 27 1188 1190 1192
3152 28 1190 1192 1195
3153 29 1197 1199 1200
3154 3 1201 1202 1203
3155 4 1201 1202 1204
3156 5 1202 1204 1205
3157 6 1202 1204 1206
3158 7 1204 1206 1207
3159 8 1202 1203 1208
3160 9 1202 1203 1209
3161 10 1203 1209 1210
3162 11 1203 1208 1211
3163 12 1208 1211 1212
3164 13 1203 1209 1213
3165 14 1209 1213 1214
3166 15 1208 1211 1215
3167 16 1211 1215 1216
3168 17 1205 1204 1206
3169 18 1210 1209 1213
3170 19 1212 1211 1215
3171 20 1203 1208 1206
3172 21 1214 1213 1215
3173 22 1208 1203 1209
3174 23 1203 1202 1204
3175 24 1209 1213 1215
3176 25 1207 1206 1208
3177 26 1211 1215 1213
3178 27 1204 1206 1208
3179 28 1206 1208 1211
3180 29 1213 1215 1216
3181 3 1217 1218 1219
3182 4 1217 1218 1220
3183 5 1218 1220 1221
3184 6 1218 1220 1222
3185 7 1220 1222 1223
3186 8 1218 1219 1224
3187 9 1218 1219 1225
3188 10 1219 1225 1226
3189 11 1219 1224 1227
3190 12 1224 1227 1228
3191 13 1219 1225 1229
3192 14 1225 1229 1230
3193 15 1224 1227 1231
3194 16 1227 1231 1232
3195 17 1221 1220 1222
3196 18 1226 1225 1229
3197 19 1228 1227 1231
3198 20 1219 1224 1222
3199 21 1230 1229 1231
3200 22 1224 1219 1225
3201 23 1219 1218 1220
3202 24 1225 1229 1231
3203 25 1223 1222 1224
3204 26 1227 1231 1229
3205 27 1220 1222 1224
3206 28 1222 1224 1227
3207 29 1229 1231 1232

Dihedrals

1 1 1157 1156 1154 1153
2 2 1159 1158 1156 1154
3 3 1160 1155 1154 1153
4 4 1162 1161 1155 1154
5 5 1164 1163 1160 1155
6 6 1166 1165 1161 1155
7 7 1165 1161 1155 1154
8 8 1160 1155 1154 1156
9 9 1167 1163 1160 1158
10 10 1166 1165 1161 1162
11 11 1163 1167 1165 1161
12 12 1157 1156 1154 1155
13 13 1162 1161 1155 1160
14 14 1161 1155 1154 1153
15 15 1163 1160 1155 1161
16 16 1165 1167 1163 1164
17 17 1160 1158 1156 1157
18 18 1164 1163 1160 1158
19 19 1161 1155 1154 1156
20 20 1167 1163 1160 1155
21 21 1168 1167 1163 1160
22 22 1168 1167 1165 1166
23 23 1168 1167 1163 1164
24 24 1163 1160 1158 1156
25 25 1166 1165 1167 1163
26 26 1158 1156 1154 1153
27 27 1167 1165 1161 1155
28 28 1167 1165 1161 1162
29 29 1158 1156 1154 1155
30 30 1165 1167 1163 1160
31 31 1156 1158 1160 1155
32 32 1161 1155 1160 1158
33 33 1163 1160 1155 1154
34 34 1160 1158 1156 1154
35 35 1163 1160 1158 1159
36 36 1159 1158 1160 1155
37 37 1168 1167 1165 1161
38 38 1165 1161 1155 1160
39 39 1159 1158 1156 1157
40 40 1158 1160 1155 1154
41 1 1173 1172 1170 1169
42 2 1175 1174 1172 1170
43 3 1176 1171 1170 1169
44 4 1178 1177 1171 1170
45 5 1180 1179 1176 1171
46 6 1182 1181 1177 1171
47 7 1181 1177 1171 1170
48 8 1176 1171 1170 1172
49 9 1183 1179 1176 1174
50 10 1182 1181 1177 1178
51 11 1179 1183 1181 1177
52 12 1173 1172 1170 1171
53 13 1178 1177 1171 1176
54 14 1177 1171 1170 1169
55 15 1179 1176 1171 1177
56 16 1181 1183 1179 1180
57 17 1176 1174 1172 1173
58 18 1180 1179 1176 1174
59 19 1177 1171 1170 1172
60 20 1183 1179 1176 1171
61 21 1184 1183 1179 1176
62 22 1184 1183 1181 1182
63 23 1184 1183 1179 1180
64 24 1179 1176 1174 1172
65 25 1182 1181 1183 1179
66 26 1174 1172 1170 1169
67 27 1183 1181 1177 1171
68 28 1183 1181 1177 1178
69 29 1174 1172 1170 1171
70 30 1181 1183 1179 1176
71 31 1172 1174 1176 1171
72 32 1177 1171 1176 1174
73 33 1179 1176 1171 1170
74 34 1176 1174 1172 1170
75 35 1179 1176 1174 1175
76 36 1175 1174 1176 1171
77 37 1184 1183 1181 1177
78 38 1181 1177 1171 1176
79 39 1175 1174 1172 1173
80 40 1174 1176 1171 1170
81 1 1189 1188 1186 1185
82 2 1191 1190 1188 1186
83 3 1192 1187 1186 1185
84 4 1194 1193 1187 1186
85 5 1196 1195 1192 1187
86 6 1198 1197 1193 1187
87 7 1197 1193 1187 1186
88 8 1192 1187 1186 1188
89 9 1199 1195 1192 1190
90 10 1198 1197 1193 1194
91 11 1195 1199 1197 1193
92 12 1189 1188 1186 1187
93 13 1194 1193 1187 1192
94 14 1193 1187 1186 1185
95 15 1195 1192 1187 1193
96 16 1197 1199 1195 1196
97 17 1192 1190 1188 1189
98 18 1196 1195 1192 1190
99 19 1193 1187 1186 1188
100 20 1199 1195 1192 1187
101 21 1200 1199 1195 1192
102 22 1200 1199 1197 1198
103 23 1200 1199 1195 1196
104 24 1195 1192 1190 1188
105 25 1198 1197 1199 1195
106 26 1190 1188 1186 1185
107 27 1199 1197 1193 1187
108 28 1199 1197 1193 1194
109 29 1190 1188 1186 1187
110 30 1197 1199 1195 1192
111 31 1188 1190 1192 1187
112 32 1193 1187 1192 1190
113 33 1195 1192 1187 1186
114 34 1192 1190 1188 1186
115 35 1195 1192 1190 1191
116 36 1191 1190 1192 1187
117 37 1200 1199 1197 1193
118 38 1197 1193 1187 1192
119 39 1191 1190 1188 1189
120 40 1190 1192 1187 1186
121 1 1205 1204 1202 1201
122 2 1207 1206 1204 1202
123 3 1208 1203 1202 1201
124 4 1210 1209 1203 1202
125 5 1212 1211 1208 1203
126 6 1214 1213 1209 1203
127 7 1213 1209 1203 1202
128 8 1208 1203 1202 1204
129 9 1215 1211 1208 1206
130 10 1214 1213 1209 1210
131 11 1211 1215 1213 1209
132 12 1205 1204 1202 1203
133 13 1210 1209 1203 1208
134 14 1209 1203 1202 1201
135 15 1211 1208 1203 1209
136 16 1213 1215 1211 1212
137 17 1208 1206 1204 1205
138 18 1212 1211 1208 1206
139 19 1209 1203 1202 1204
140 20 1215 1211 1208 1203
141 21 1216 1215 1211 1208
142 22 1216 1215 1213 1214
143 23 1216 1215 1211 1212
144 24 1211 1208 1206 1204
145 25 1214 1213 1215 1211
146 26 1206 1204 1202 1201
147 27 1215 1213 1209 1203
148 28 1215 1213 1209 1210
149 29 1206 1204 1202 1203
150 30 1213 1215 1211 1208
151 31 1204 1206 1208 1203
152 32 1209 1203 1208 1206
153 33 1211 1208 1203 1202
154 34 1208 1206 1204 1202
155 35 1211 1208 1206 1207
156 36 1207 1206 1208 1203
157 37 1216 1215 1213 1209
158 38 1213 1209 1203 1208
159 39 1207 1206 1204 1205
160 40 1206 1208 1203 1202
161 1 1221 1220 1218 1217
162 2 1223 1222 1220 1218
163 3 1224 1219 1218 1217
164 4 1226 1225 1219 1218
165 5 1228 1227 1224 1219
166 6 1230 1229 1225 1219
167 7 1229 1225 1219 1218
168 8 1224 1219 1218 1220
169 9 1231 1227 1224 1222
170 10 1230 1229 1225 1226
171 11 1227 1231 1229 1225
172 12 1221 1220 1218 1219
173 13 1226 1225 1219 1224
174 14 1225 1219 1218 1217
175 15 1227 1224 1219 1225
176 16 1229 1231 1227 1228
177 17 1224 1222 1220 1221
178 18 1228 1227 1224 1222
179 19 1225 1219 1218 1220
180 20 1231 1227 1224 1219
181 21 1232 1231 1227 1224
182 22 1232 1231 1229 1230
183 23 1232 1231 1227 1228
184 24 1227 1224 1222 1220
185 25 1230 1229 1231 1227
186 26 1222 1220 1218 1217
187 27 1231 1229 1225 1219
188 28 1231 1229 1225 1226
189 29 1222 1220 1218 1219
190 30 1229 1231 1227 1224
191 31 1220 1222 1224 1219
192 32 1225 1219 1224 1222
193 33 1227 1224 1219 1218
194 34 1224 1222 1220 1218
195 35 1227 1224 1222 1223
196 36 1223 1222 1224 1219
197 37 1232 1231 1229 1225
198 38 1229 1225 1219 1224
199 39 1223 1222 1220 1221
200 40 1222 1224 1219 1218

Impropers

1 1 1154 1153 1155 1156
2 2 1156 1154 1157 1158
3 3 1155 1161 1154 1160
4 4 1160 1163 1158 1155
5 5 1161 1162 1155 1165
6 6 1163 1164 1167 1160
7 7 1167 1163 1165 1168
8 8 1165 1161 1166 1167
9 1 1170 1169 1171 1172
10 2 1172 1170 1173 1174
11 3 1171 1177 1170 1176
12 4 1176 1179 1174 1171
13 5 1177 1178 1171 1181
14 6 1179 1180 1183 1176
15 7 1183 1179 1181 1184
16 8 1181 1177 1182 1183
17 1 1186 1185 1187 1188
18 2 1188 1186 1189 1190
19 3 1187 1193 1186 1192
20 4 1192 1195 1190 1187
21 5 1193 1194 1187 1197
22 6 1195 1196 1199 1192
23 7 1199 1195 1197 1200
24 8 1197 1193 1198 1199
25 1 1202 1201 1203 1204
26 2 1204 1202 1205 1206
27 3 1203 1209 1202 1208
28 4 1208 1211 1206 1203
29 5 1209 1210 1203 1213
30 6 1211 1212 1215 1208
31 7 1215 1211 1213 1216
32 8 1213 1209 1214 1215
33 1 1218 1217 1219 1220
34 2 1220 1218 1221 1222
35 3 1219 1225 1218 1224
36 4 1224 1227 1222 1219
37 5 1225 1226 1219 1229
38 6 1227 1228 1231 1224
39 7 1231 1227 1229 1232
40 8 1229 1225 1230 1231
