LAMMPS (17 Apr 2024)
OMP_NUM_THREADS environment is not set. Defaulting to 1 thread. (src/comm.cpp:98)
  using 1 OpenMP thread(s) per MPI task
units           real
atom_style      full

pair_style      lj/cut/coul/long 12.000
bond_style      harmonic
angle_style     harmonic
dihedral_style  opls
improper_style  cvff

dielectric      1.0
pair_modify     mix arithmetic
special_bonds   lj/coul 0.0 0.0 1.0
#box tilt        large
read_data       data_beta.lammps
Reading data file ...
  triclinic box = (-12.46485 -12.46485 -13.1118) to (12.46485 12.46485 13.1118) with tilt (0 0 0)
  2 by 2 by 4 MPI processor grid
  reading atoms ...
  832 atoms
  scanning bonds ...
  2 = max bonds/atom
  scanning angles ...
  6 = max angles/atom
  scanning dihedrals ...
  7 = max dihedrals/atom
  scanning impropers ...
  2 = max impropers/atom
  triclinic box = (-12.46485 -12.46485 -13.1118) to (12.46485 12.46485 13.1118) with tilt (0 0 0)
  2 by 2 by 4 MPI processor grid
  reading bonds ...
  1092 bonds
  reading angles ...
  2156 angles
  reading dihedrals ...
  160 dihedrals
  reading impropers ...
  32 impropers
Finding 1-2 1-3 1-4 neighbors ...
  special bond factors lj:    0        0        1       
  special bond factors coul:  0        0        1       
     4 = max # of 1-2 neighbors
     6 = max # of 1-3 neighbors
     9 = max # of special neighbors
  special bonds CPU = 0.001 seconds
  read_data CPU = 0.028 seconds

set		type 1 charge -0.55
Setting atom values ...
  512 settings made for charge
set		type 2 charge 1.1
Setting atom values ...
  256 settings made for charge

group		zeo type 1 2
768 atoms in group zeo
group		indole type 3 4 5 6 7 8 9 10 11 12 13 14 15 16 17 18
64 atoms in group indole

kspace_style    pppm 1.0e-4

#group		rigid union JUC gra1 gra2
#group		frozen union JUC gra1 gra2

neighbor	2.0 bin
neigh_modify	delay 5 exclude molecule/intra zeo
#neigh_modify	every 5 delay 10

timestep        1.0

#fix     	11 frozen setforce 0.0 0.0 0.0

delete_bonds	zeo multi
System init for delete_bonds ...
PPPM initialization ...
  using 12-bit tables for long-range coulomb (src/kspace.cpp:342)
  G vector (1/distance) = 0.229178
  grid = 12 12 15
  stencil order = 5
  estimated absolute RMS force accuracy = 0.017901907
  estimated relative force accuracy = 5.391106e-05
  using double precision FFTW3
  3d grid and FFT values/proc = 1210 144
Generated 153 of 153 mixed pair_coeff terms from arithmetic mixing rule
WARNING: Neighbor exclusions used with KSpace solver may give inconsistent Coulombic energies (src/neighbor.cpp:654)
Neighbor list info ...
  update: every = 1 steps, delay = 5 steps, check = yes
  max neighbors/atom: 2000, page size: 100000
  master list distance cutoff = 14
  ghost atom cutoff = 14
  binsize = 7, bins = 4 4 4
  1 neighbor lists, perpetual/occasional/extra = 1 0 0
  (1) pair lj/cut/coul/long, perpetual
      attributes: half, newton on
      pair build: half/bin/newton/tri
      stencil: half/bin/3d/tri
      bin: standard
Deleting bonds ...
  1092 total bonds, 68 turned on, 1024 turned off
  2156 total angles, 108 turned on, 2048 turned off
  160 total dihedrals, 160 turned on, 0 turned off
  32 total impropers, 32 turned on, 0 turned off

velocity        indole create 700.0 902144 dist gaussian
velocity	zeo set 0.0 0.0 0.0

#fix		20 water shake 0.0001 20 0 t 6 7
#fix     	1 sol npt temp 298.0 298.0 100.0 iso 1.0 1.0 1000.0
fix		1 indole nvt temp 700.0 700.0 100.0

#fix		21 sol wall/harmonic xlo 15.0 10.0 0.0 2.0 units box

compute         1 indole temp

thermo		1000
# thermo_style	custom step time spcpu c_1 press pe ke enthalpy evdwl emol ecoul etotal
thermo_style    custom step time spcpu c_1 temp press pe ke enthalpy evdwl ecoul epair ebond eangle edihed elong etail emol ecouple econserve etotal

dump nvt_dump all yaml 1000 eq.yaml id type x y z
dump_modify nvt_dump sort id units yes thermo yes

dump nvt_xyz all xyz 1000 eq.xyz
dump_modify nvt_xyz sort id units yes

run		100000
PPPM initialization ...
  using 12-bit tables for long-range coulomb (src/kspace.cpp:342)
  G vector (1/distance) = 0.229178
  grid = 12 12 15
  stencil order = 5
  estimated absolute RMS force accuracy = 0.017901907
  estimated relative force accuracy = 5.391106e-05
  using double precision FFTW3
  3d grid and FFT values/proc = 1210 144
Generated 153 of 153 mixed pair_coeff terms from arithmetic mixing rule
WARNING: Neighbor exclusions used with KSpace solver may give inconsistent Coulombic energies (src/neighbor.cpp:654)
Per MPI rank memory allocation (min/avg/max) = 11.56 | 11.64 | 11.76 Mbytes
   Step          Time          S/CPU           c_1            Temp          Press          PotEng         KinEng        Enthalpy        E_vdwl         E_coul         E_pair         E_bond        E_angle        E_dihed         E_long         E_tail         E_mol         Ecouple       Econserve        TotEng    
         0   0              0              700            53.068592      342.37991     -19834.053      131.45372     -19621.221     -36.382417      100.25049     -19934.534      15.068553      85.412421      1.3608226e-13 -19998.402      0              100.48097      0             -19702.6       -19702.6      
      1000   1000           2343.6188      761.61548      57.739801      158.18483     -19771.153      143.02456     -19590.53      -30.351485      98.395012     -19930.226      49.743188      80.451622      26.90841      -19998.27       0              159.07306     -72.604138     -19700.733     -19628.129    
      2000   2000           2293.484       692.27777      52.483152      132.85202     -19765.026      130.00356     -19603.445     -29.600821      97.9773       -19930.55       43.199141      81.860032      37.61249      -19998.926      0              165.52418     -66.43074      -19701.453     -19635.022    
      3000   3000           2347.0295      595.21926      45.124926      411.05006     -19770.442      111.77684     -19560.965     -35.870197      99.677734     -19933.421      46.533163      76.593863      36.51435      -19997.228      0              162.97847     -42.682125     -19701.348     -19658.666    
      4000   4000           2346.5889      650.07654      49.283781      15.509883     -19760.873      122.07855     -19635.108     -37.26509       98.777978     -19936.383      59.480481      75.831008      37.276158     -19997.895      0              175.50954     -61.973581     -19700.768     -19638.794    
      5000   5000           2349.7011      729.12926      55.276947     -304.59081     -19759.304      136.92394     -19694.777     -39.278773      96.943541     -19939.636      53.144217      82.401663      42.178687     -19997.301      0              180.33204     -78.857778     -19701.238     -19622.38     
      6000   6000           2395.8629      778.39209      59.011675     -685.53382     -19770.223      146.17506     -19786.989     -33.657509      96.565695     -19935.545      61.131118      66.216876      35.250303     -19998.453      0              165.32245     -77.221487     -19701.269     -19624.048    
      7000   7000           2364.5454      582.00045      44.122778     -1176.059      -19784.629      109.29447     -19954.866     -45.67602       99.68508      -19944.786      54.053712      74.630914      29.001652     -19998.795      0              160.1568      -26.271808     -19701.606     -19675.334    
      8000   8000           2376.5929      745.7885       56.539922     -789.84901     -19773.99       140.05239     -19821.673     -36.4996        99.577329     -19934.031      51.94353       70.140537      35.413984     -19997.109      0              160.04095     -67.48663      -19701.424     -19633.938    
      9000   9000           2315.7711      770.99422      58.450825     -770.69471     -19776.009      144.7858      -19814.406     -43.751904      98.994755     -19942.778      54.753307      75.855673      33.24671      -19998.021      0              166.76856     -70.006194     -19701.23      -19631.224    
     10000   10000          2357.1485      589.84682      44.717629     -1590.796      -19782.19       110.76794     -20049.531     -43.660243      99.774422     -19941.158      55.713875      68.426175      32.107831     -19997.272      0              158.96729     -30.640332     -19702.063     -19671.422    
     11000   11000          2382.1819      674.92524      51.167618     -1216.4332     -19763.526      126.74491     -19925.909     -41.501515      99.398384     -19939.995      67.865809      64.877076      40.192532     -19997.892      0              176.46885     -65.219144     -19702         -19636.781    
     12000   12000          2364.5624      822.23876      62.335791     -1074.0942     -19783.297      154.40907     -19884.184     -43.619937      97.402215     -19943.631      56.833525      75.052079      26.104522     -19997.413      0              160.33431     -72.594312     -19701.482     -19628.887    
     13000   13000          2434.1485      636.64037      48.265155      173.1817      -19793.115      119.55535     -19632.397     -37.511829      98.817853     -19936.935      38.527748      66.315458      36.523182     -19998.241      0              143.82041     -28.20609      -19701.766     -19673.56     
     14000   14000          2417.4258      711.45888      53.937316      262.95045     -19763.092      133.6056      -19566.987     -36.454562      94.024348     -19940.008      53.330026      71.167704      48.635724     -19997.578      0              176.91636     -71.770125     -19701.257     -19629.486    
     15000   15000          2399.4295      603.09339      45.721882     -823.26953     -19765.287      113.25553     -19847.71      -38.955007      100.70832     -19937.118      55.429643      70.747458      42.382523     -19998.872      0              171.83161     -48.983064     -19701.014     -19652.031    
     16000   16000          2383.0546      608.73242      46.149389     -1311.7769     -19744.257      114.31449     -19941.732     -42.825748      99.213557     -19941.063      62.180734      78.311054      52.31477      -19997.451      0              196.80647     -70.657027     -19700.599     -19629.942    
     17000   17000          2315.6614      694.26576      52.633866     -251.77613     -19767.733      130.37688     -19697.2       -36.605109      98.800193     -19937.202      60.842165      63.240273      41.898065     -19999.397      0              169.46825     -64.133298     -19701.49      -19637.356    
     18000   18000          2357.2138      770.71446      58.429616     -626.74096     -19759.278      144.73326     -19763.512     -36.914561      98.486107     -19935.972      54.057232      81.905857      38.215415     -19997.543      0              176.69367     -87.059474     -19701.604     -19614.545    
     19000   19000          2354.5781      728.1553       55.20311      -1429.1697     -19775.477      136.74104     -19978.429     -39.219926      98.439299     -19938.288      50.51574       75.555659      33.757469     -19997.508      0              162.81132     -62.396282     -19701.132     -19638.736    
     20000   20000          2381.6174      648.02739      49.12843      -1255.7466     -19755.971      121.69373     -19932.75      -43.452613      99.435073     -19940.552      53.119652      84.84578       43.18408      -19996.534      0              184.58089     -67.460996     -19701.738     -19634.277    
     21000   21000          2419.3862      627.88409      47.601321     -1745.2686     -19747.591      117.911       -20044.505     -40.918781      99.577579     -19938.921      76.11247       77.393766      34.864665     -19997.58       0              191.33005     -71.41484      -19701.095     -19629.68     
     22000   22000          2408.0596      585.3173       44.374236     -928.51599     -19755.276      109.91734     -19866.053     -35.264841      98.562511     -19934.242      55.131202      93.556129      27.835503     -19997.54       0              178.96695     -55.59164      -19700.95      -19645.358    
     23000   23000          2419.3028      686.60479      52.053071     -1683.3718     -19757.378      128.93822     -20028.552     -45.10424       100.06136     -19941.563      80.344235      65.69056       35.724441     -19996.52       0              184.18553     -72.585666     -19701.025     -19628.439    
     24000   24000          2317.3887      748.78474      56.767074     -427.00798     -19767.666      140.61506     -19728.545     -43.919644      96.512988     -19945.568      52.893706      77.792271      43.749798     -19998.161      0              177.90147     -73.985184     -19701.036     -19627.051    
     25000   25000          2460.6656      835.33176      63.3284        489.96307     -19750.625      156.86781     -19477.3       -25.82403       93.986521     -19929.459      66.903643      64.520005      44.068471     -19997.621      0              178.83359     -106.7811      -19700.538     -19593.757    
     26000   26000          2412.952       752.40966      57.041887     -580.31983     -19766.901      141.29579     -19763.538     -35.089363      99.534063     -19932.15       60.296736      68.063353      34.352388     -19996.595      0              165.24941     -75.492511     -19701.097     -19625.605    
     27000   27000          2410.0381      634.66657      48.115516     -1304.5056     -19766.835      119.18469     -19957.712     -38.437648      97.532713     -19938.724      65.627788      69.094185      34.345942     -19997.819      0              171.8887      -53.448629     -19701.099     -19647.65     
     28000   28000          2389.5119      743.66261      56.378754     -561.59926     -19762.581      139.65317     -19756.411     -37.619081      97.026716     -19938.086      61.866588      69.82226       40.561651     -19997.494      0              175.50558     -78.228345     -19701.156     -19622.927    
     29000   29000          2325.7003      649.91833      49.271787     -542.18142     -19773.086      122.04883     -19779.905     -40.727385      98.482083     -19940.712      56.247785      73.398809      35.402288     -19998.467      0              167.62643     -50.474692     -19701.512     -19651.037    
     30000   30000          2335.8507      796.74816      60.40329      -890.09188     -19769.447      149.62216     -19831.386     -45.460872      98.910906     -19943.789      62.753091      67.205998      41.707383     -19997.239      0              174.34173     -81.034192     -19700.859     -19619.825    
     31000   31000          2388.082       605.51776      45.905679     -90.793275     -19746.101      113.71081     -19653.971     -37.236547      98.491764     -19935.71       65.690705      70.836996      49.068715     -19996.965      0              189.60898     -68.460372     -19700.851     -19632.39     
     32000   32000          2410.8465      610.16036      46.257645     -153.90056     -19771.865      114.58264     -19693.862     -38.416462      101.88128     -19934.77       46.717963      87.125073      26.533971     -19998.235      0              162.90587     -44.22623      -19701.508     -19657.282    
     33000   33000          2472.342       795.13754      60.281185      390.53037     -19762.237      149.3197      -19520.094     -38.456061      97.820985     -19939.486      63.607838      72.34312       38.114229     -19998.851      0              177.24886     -87.910407     -19700.828     -19612.917    
     34000   34000          2462.7829      637.30344      48.315423     -940.89443     -19778.646      119.67987     -19882.603     -44.207443      97.501836     -19944.665      74.184011      59.608646      30.265503     -19997.959      0              166.01847     -42.559588     -19701.526     -19658.966    
     35000   35000          2406.7732      743.73577      56.3843       -1211.5549     -19766.221      139.66691     -19914.522     -45.46206       97.048204     -19946.19       70.953554      62.102969      43.052603     -19997.776      0              179.96926     -74.803822     -19701.357     -19626.554    
     36000   36000          2440.6952      604.97308      45.864385     -541.7097      -19779.772      113.60852     -19794.92      -37.293807      96.33908      -19938.571      57.635144      78.878536      20.939521     -19997.617      0              158.79951     -35.260735     -19701.424     -19666.163    
     37000   37000          2418.6049      809.67461      61.383274     -1359.3823     -19771.107      152.04963     -19942.163     -47.040463      97.672713     -19948.41       78.859783      63.076848      32.833166     -19999.042      0              177.30286     -81.676808     -19700.734     -19619.057    
     38000   38000          2386.1291      763.36034      57.872083     -926.52806     -19756.469      143.35223     -19833.339     -36.186022      98.688355     -19935.253      72.104569      66.61401       37.024847     -19997.756      0              178.78435     -87.77664      -19700.893     -19613.117    
     39000   39000          2355.2257      607.33794      46.043671     -539.6818      -19758.98       114.05262     -19773.202     -34.543982      98.92553      -19934.565      73.635321      59.446133      39.511346     -19998.946      0              175.58448     -56.104083     -19701.032     -19644.927    
     40000   40000          2423.44        684.71963      51.910152     -1222.7143     -19757.489      128.58421     -19919.526     -40.720388      95.596258     -19942.747      76.431433      69.976058      36.050049     -19997.623      0              185.25791     -71.700469     -19700.606     -19628.905    
     41000   41000          2424.1917      747.87825      56.698351     -98.194987     -19763.237      140.44483     -19646.132     -35.646808      99.009088     -19936.432      62.718876      69.819908      37.051513     -19999.794      0              173.19452     -78.281054     -19701.073     -19622.792    
     42000   42000          2376.4578      623.23615      47.24895      -1896.1488     -19752.988      117.03816     -20086.637     -41.332748      97.51457      -19939.992      81.195814      70.285968      32.543993     -19996.173      0              187.00336     -64.988551     -19700.939     -19635.95     
     43000   43000          2421.3483      699.38534      53.021993      902.82782     -19749.486      131.3383      -19403.559     -33.887206      99.32518      -19932.758      60.755989      88.216186      31.511827     -19998.196      0              183.27161     -82.759023     -19700.907     -19618.148    
     44000   44000          2465.3065      718.85319      54.497895     -1390.0249     -19784.968      134.99418     -19980.362     -43.708149      98.888142     -19941.275      62.250033      65.635488      26.61189      -19996.455      0              156.30693     -51.139345     -19701.113     -19649.974    
     45000   45000          2322.3649      724.21052      54.904046     -1065.7448     -19755.312      136.00024     -19872.624     -34.91464       98.136146     -19934.693      68.419164      67.086864      41.220734     -19997.914      0              179.38071     -81.963352     -19701.275     -19619.312    
     46000   46000          2399.5958      781.73555      59.26515      -432.50759     -19752.049      146.80293     -19708.047     -30.606156      94.737022     -19933.331      57.562613      86.71012       34.431631     -19997.462      0              181.28127     -95.443429     -19700.69      -19605.246    
     47000   47000          2409.3645      636.14594      48.227671     -2176.9871     -19757.63       119.4625      -20155.606     -40.544733      100.64112     -19935.896      78.228038      74.847488      23.323218     -19995.992      0              178.26529     -62.562944     -19700.731     -19638.168    
     48000   48000          2378.9641      701.73515      53.200138     -239.5151      -19781.716      131.77957     -19706.866     -40.402001      99.617159     -19938.764      61.758804      67.68323       25.802402     -19997.979      0              157.04756     -51.708752     -19701.645     -19649.936    
     49000   49000          2398.4232      729.82638      55.329798      301.41598     -19754.45       137.05485     -19545.753     -36.277856      98.916023     -19935.362      72.244526      76.936464      29.969457     -19998          0              180.91205     -82.520228     -19699.915     -19617.395    
     50000   50000          2472.7451      800.45775      60.684523     -235.48146     -19775.194      150.31879     -19680.846     -38.372155      101.17376     -19936.024      51.379351      72.16098       34.611906     -19998.825      0              160.82952     -75.921953     -19700.797     -19624.875    
     51000   51000          2498.2331      853.52104      64.707372     -1485.4795     -19779.506      160.2836      -19972.299     -44.156723      97.975811     -19944.218      58.03244       76.856317      27.679959     -19998.037      0              164.71143     -81.52608      -19700.749     -19619.223    
     52000   52000          2453.6858      637.66149      48.342568     -198.88905     -19747.946      119.74711     -19675.472     -37.571083      98.499765     -19937.006      75.108809      68.722893      42.302465     -19997.935      0              189.06018     -72.2977       -19700.496     -19628.199    
     53000   53000          2383.5319      688.43716      52.191987     -1612.6374     -19781.171      129.28233     -20035.189     -41.490217      97.920008     -19941.106      67.849271      66.006168      24.151106     -19997.536      0              159.93503     -49.041781     -19700.931     -19651.889    
     54000   54000          2403.2201      799.1328       60.584075      170.10171     -19744.438      150.06997     -19553.938     -36.143204      98.598127     -19933.914      66.350564      86.575058      33.793919     -19996.369      0              189.47542     -105.64389     -19700.012     -19594.368    
     55000   55000          2424.6356      778.47122      59.017673     -728.98339     -19762.808      146.18991     -19789.887     -41.287021      98.126854     -19941.348      61.584342      80.516334      34.341816     -19998.188      0              178.54023     -83.815316     -19700.433     -19616.618    
     56000   56000          2444.222       730.42304      55.375032     -129.66238     -19767.741      137.1669      -19661.393     -42.470167      102.10176     -19939.668      55.39769       68.069835      45.067523     -19999.3        0              171.92759     -69.7121       -19700.286     -19630.574    
     57000   57000          2389.3469      654.90842      49.650097     -1068.7706     -19763.019      122.98593     -19894.064     -40.539053      98.177525     -19940.829      68.326423      69.231298      37.875348     -19998.468      0              177.81001     -60.735085     -19700.768     -19640.033    
     58000   58000          2393.2534      763.6572       57.894589     -868.81355     -19740.948      143.40798     -19804.045     -36.314306      96.232522     -19937.303      64.730503      79.732876      47.726686     -19997.221      0              196.35427     -102.82719     -19700.368     -19597.54     
     59000   59000          2386.0961      593.33519      44.98209      -1321.4499     -19761.117      111.42303     -19963.783     -40.188451      97.342324     -19940.293      58.809873      68.321839      48.580701     -19997.447      0              179.17629     -50.744462     -19700.438     -19649.694    
     60000   60000          2419.2493      818.69058      62.066795     -1091.8419     -19761.684      153.74275     -19867.456     -42.452582      97.423959     -19943.065      57.256312      76.753408      42.544998     -19998.036      0              181.38095     -92.66179      -19700.603     -19607.941    
     61000   61000          2397.8257      848.68999      64.341119     -204.91001     -19777.926      159.37637     -19667.254     -40.071619      100.06208     -19939.235      47.90668       78.145691      32.947951     -19999.225      0              161.30888     -81.958392     -19700.508     -19618.55     
     62000   62000          2483.7843      595.39978      45.138612     -1090.3185     -19761.644      111.81074     -19908.986     -40.854516      98.816208     -19940.102      61.563485      73.368961      40.916876     -19998.064      0              178.45853     -50.577177     -19700.41      -19649.833    
     63000   63000          2402.8607      813.58788      61.679948     -60.650726     -19753.631      152.78451     -19615.263     -37.8719        98.230668     -19939.406      54.916584      77.972866      49.31839      -19999.765      0              185.775       -99.239488     -19700.086     -19600.847    
     64000   64000          2363.8492      729.91141      55.336244     -1668.8459     -19756.54       137.07082     -20016.13      -38.515651      98.923844     -19936.358      65.322579      82.261231      30.018764     -19996.766      0              179.81782     -81.292229     -19700.762     -19619.469    
     65000   65000          2412.1992      702.30263      53.24316      -1509.3062     -19789.723      131.88614     -20016.576     -42.746139      96.580166     -19945.679      67.218216      67.393226      19.824758     -19999.513      0              155.95592     -42.812546     -19700.649     -19657.837    
     66000   66000          2395.486       762.92894      57.839378     -1982.7266     -19772.501      143.27121     -20100.495     -48.1269        101.57887     -19944.697      57.785516      71.882635      39.900591     -19998.149      0              172.19564     -71.696787     -19700.927     -19629.23     
     67000   67000          2389.6933      725.14411      54.974824     -183.80394     -19769.864      136.17556     -19677.376     -37.768083      94.451377     -19941.27       59.872655      71.330557      37.065047     -19997.953      0              171.40566     -66.982483     -19700.671     -19633.688    
     68000   68000          2284.4699      711.45266      53.936844     -775.3533      -19770.127      133.60443     -19820.813     -41.522017      99.172133     -19938.917      57.746624      69.648576      38.038011     -19996.567      0              168.79021     -64.264571     -19700.787     -19636.523    
     69000   69000          2319.3302      668.33556      50.668039     -1016.4779     -19768.185      125.50743     -19884.279     -40.788297      97.944857     -19941.103      54.770024      67.436493      46.681609     -19998.259      0              172.91772     -57.904656     -19700.582     -19642.678    
     70000   70000          2321.5804      765.32123      58.020743     -311.52565     -19783.722      143.72047     -19714.046     -39.743495      95.484815     -19941.805      49.628077      67.504564      38.42044      -19997.546      0              158.08289     -60.840969     -19700.842     -19640.001    
     71000   71000          2367.52        722.78708      54.796133     -461.19177     -19754.794      135.73293     -19728.68      -34.644954      96.059003     -19935.5        65.691558      70.54514       42.060939     -19996.914      0              180.70554     -81.1706       -19700.232     -19619.061    
     72000   72000          2405.3114      622.07274      47.160749     -1210.2991     -19768.503      116.81968     -19939.354     -43.278534      97.075165     -19943.101      44.009081      96.31829       31.515428     -19996.898      0              174.59785     -49.557647     -19701.241     -19651.684    
     73000   73000          2359.0011      880.72952      66.770108      757.41525     -19770.594      165.39311     -19425.175     -33.612577      97.183318     -19934.768      56.082216      75.069895      30.333943     -19998.339      0              164.17353     -95.319449     -19700.521     -19605.201    
     74000   74000          2383.5687      846.99         64.212238      409.01346     -19782.33       159.05713     -19526.056     -33.386905      97.859367     -19934.24       40.707567      86.179959      23.591866     -19998.712      0              151.90979     -77.993596     -19701.266     -19623.273    
     75000   75000          2405.6922      658.15772      49.896434     -400.36328     -19757.709      123.59612     -19729.274     -36.163813      96.788746     -19936.399      62.453284      80.882781      32.766261     -19997.023      0              178.68914     -66.716446     -19700.83      -19634.113    
     76000   76000          2422.275       607.27405      46.038827      67.547384     -19769.105      114.04062     -19639.009     -35.295872      98.61475      -19934.937      60.712978      68.611698      33.804943     -19998.256      0              165.83228     -45.817415     -19700.882     -19655.064    
     77000   77000          2469.5048      729.7605       55.324803     -368.55105     -19767.302      137.04248     -19717.859     -40.888852      102.90322     -19936.26       50.284419      79.066427      36.529702     -19998.275      0              168.95774     -70.827062     -19701.087     -19630.26     
     78000   78000          2358.4455      556.34841      42.178038     -472.5362      -19777.408      104.47724     -19785.246     -31.640706      102.20858     -19927.92       47.71883       74.57124       26.312173     -19998.488      0              150.5119      -28.145824     -19701.077     -19672.931    
     79000   79000          2380.677       746.69414      56.608581      12.188957     -19778.822      140.22246     -19635.702     -38.478998      98.256502     -19939.419      53.926728      78.704083      25.425536     -19999.196      0              160.59693     -62.639777     -19701.239     -19638.599    
     80000   80000          2379.3459      816.31688      61.88684       276.24848     -19785.372      153.29699     -19566.415     -32.094523      98.941938     -19930.766      42.738509      77.059567      23.988211     -19997.614      0              145.39442     -69.650907     -19701.726     -19632.075    
     81000   81000          2383.4806      575.92315      43.662044     -1721.6755     -19793.75       108.1532      -20094.813     -46.114035      99.941685     -19944.533      53.579673      67.9252        27.203847     -19998.361      0              150.78336     -15.953117     -19701.55      -19685.597    
     82000   82000          2352.9507      833.89446      63.219435     -174.51614     -19753.494      156.5979      -19638.376     -40.101407      96.9579       -19942.046      69.117345      74.491828      42.171026     -19998.902      0              188.55211     -103.28891     -19700.185     -19596.896    
     83000   83000          2391.0614      719.68697      54.561106     -98.73643      -19775.966      135.15076     -19664.284     -41.441152      97.3471       -19944.497      54.010424      76.731413      35.274393     -20000.403      0              168.53103     -60.338859     -19701.154     -19640.815    
     84000   84000          2439.3683      727.61708      55.162305      706.95432     -19776.643      136.63996     -19471.97      -38.184381      100.91766     -19937.413      55.808052      72.06213       30.767596     -20000.147      0              160.77086     -61.202968     -19701.206     -19640.003    
     85000   85000          2439.6908      808.4053       61.287045     -21.031638     -19766.476      151.81127     -19619.663     -40.729952      100.59672     -19940.697      49.354057      80.637211      40.972633     -20000.564      0              174.22136     -86.879314     -19701.544     -19614.664    
     86000   86000          2435.7037      626.47196      47.494264     -709.79564     -19765.277      117.64582     -19816.34      -39.392267      99.964963     -19937.183      63.194772      76.806865      28.96051      -19997.756      0              171.90585     -53.501754     -19701.133     -19647.632    
     87000   87000          2442.4527      792.54381      60.084549     -1156.6542     -19758.698      148.83262     -19884.785     -39.168035      97.632344     -19939.213      67.018369      77.970883      33.325018     -19997.678      0              180.5153      -90.825924     -19700.692     -19609.866    
     88000   88000          2401.2705      640.07494      48.525537     -534.04768     -19768.782      120.20033     -19775.517     -38.176025      98.66599      -19938.851      68.972429      65.41183       33.791738     -19999.341      0              170.06917     -52.456177     -19701.038     -19648.581    
     89000   89000          2438.292       677.35841      51.352081      365.4032      -19762.475      127.20184     -19548.422     -38.113743      96.618324     -19939.092      53.343188      80.276826      40.27495      -19997.597      0              176.61755     -66.118783     -19701.392     -19635.273    
     90000   90000          2415.6645      666.41054      50.522099     -392.09697     -19754.597      125.14592     -19722.647     -32.20495       96.520905     -19933.912      55.658395      83.626625      37.345926     -19998.228      0              179.31524     -71.432956     -19700.884     -19629.451    
     91000   91000          2373.845       681.19274      51.642771     -270.40614     -19776.271      127.92189     -19712.62      -39.314087      97.214013     -19940.074      55.273407      72.758676      33.718059     -19997.973      0              163.80285     -52.585907     -19700.935     -19648.349    
     92000   92000          2419.7374      760.93221      57.688002      309.54866     -19755.288      142.89625     -19538.817     -40.158009      100.1159      -19938.024      62.083167      88.012936      30.174384     -19997.981      0              182.73553     -88.627477     -19701.019     -19612.392    
     93000   93000          2472.0483      573.08903      43.447183     -399.2328      -19763.233      107.62098     -19750.504     -32.545457      96.157032     -19934.431      56.874931      79.632814      32.408616     -19998.042      0              171.19756     -45.355405     -19700.968     -19655.612    
     94000   94000          2437.5553      719.0396       54.512027      833.44669     -19766.589      135.02919     -19433.462     -36.67397       97.043356     -19937.713      69.005501      66.813343      32.687723     -19998.082      0              171.12348     -69.620521     -19701.181     -19631.56     
     95000   95000          2437.295       707.79533      53.659574     -1260.1983     -19781.462      132.91762     -19948.075     -36.25197       96.910648     -19938.694      47.532047      71.818338      35.916095     -19999.353      0              157.23224     -52.601723     -19701.146     -19648.545    
     96000   96000          2447.0377      850.26901      64.460828     -1483.6666     -19768.786      159.6729      -19961.758     -40.079574      100.40538     -19938.19       46.184461      75.035113      44.719836     -19998.516      0              169.40426     -92.210202     -19701.323     -19609.113    
     97000   97000          2406.4138      653.00334      49.505668     -881.89733     -19755.878      122.62817     -19842.864     -35.634969      99.921627     -19932.893      55.602127      85.29306       33.87576      -19997.179      0              177.01511     -67.676673     -19700.926     -19633.25     
     98000   98000          2367.642       585.7588       44.407707     -30.420227     -19788.351      110.00025     -19685.582     -39.891207      99.306003     -19938.685      46.031678      65.11234       36.288654     -19998.1        0              150.334       -22.509973     -19700.861     -19678.351    
     99000   99000          2407.3114      667.84203      50.630624     -433.34855     -19760.858      125.41475     -19738.444     -35.529568      97.52666      -19935.264      54.176258      84.36055       33.212933     -19997.261      0              174.4063      -65.245289     -19700.689     -19635.443    
    100000   100000         2363.1524      653.38866      49.53488      -180.83305     -19754.785      122.70053     -19675.066     -39.345766      96.232077     -19940.321      62.951416      72.642093      46.782864     -19997.207      0              185.53607     -68.767144     -19700.852     -19632.085    
Loop time of 41.7541 on 16 procs for 100000 steps with 832 atoms

Performance: 206.926 ns/day, 0.116 hours/ns, 2394.974 timesteps/s, 1.993 Matom-step/s
88.7% CPU use with 16 MPI tasks x 1 OpenMP threads

MPI task timing breakdown:
Section |  min time  |  avg time  |  max time  |%varavg| %total
---------------------------------------------------------------
Pair    | 2.8068     | 3.8311     | 5.2256     |  37.5 |  9.18
Bond    | 0.1444     | 0.31645    | 0.58737    |  22.3 |  0.76
Kspace  | 17.421     | 18.727     | 19.997     |  18.0 | 44.85
Neigh   | 2.7858     | 2.7878     | 2.7917     |   0.1 |  6.68
Comm    | 13.819     | 14.054     | 14.509     |   5.4 | 33.66
Output  | 0.1207     | 0.12369    | 0.12653    |   0.5 |  0.30
Modify  | 0.50134    | 0.72532    | 0.95668    |  19.1 |  1.74
Other   |            | 1.189      |            |       |  2.85

Nlocal:             52 ave          59 max          48 min
Histogram: 5 1 1 3 2 0 1 1 1 1
Nghost:         2568.5 ave        2607 max        2542 min
Histogram: 4 1 2 0 2 2 2 2 0 1
Neighs:        2247.75 ave        4197 max        1056 min
Histogram: 4 2 1 3 1 1 1 1 1 1

Total # of neighbors = 35964
Ave neighs/atom = 43.225962
Ave special neighs/atom = 7.8076923
Neighbor list builds = 2102
Dangerous builds = 0

write_data nvt_1ns_indole.data pair ij
System init for write_data ...
PPPM initialization ...
  using 12-bit tables for long-range coulomb (src/kspace.cpp:342)
  G vector (1/distance) = 0.229178
  grid = 12 12 15
  stencil order = 5
  estimated absolute RMS force accuracy = 0.017901907
  estimated relative force accuracy = 5.391106e-05
  using double precision FFTW3
  3d grid and FFT values/proc = 1210 144
Generated 153 of 153 mixed pair_coeff terms from arithmetic mixing rule
WARNING: Neighbor exclusions used with KSpace solver may give inconsistent Coulombic energies (src/neighbor.cpp:654)
Total wall time: 0:00:41
