LAMMPS (17 Apr 2024)
OMP_NUM_THREADS environment is not set. Defaulting to 1 thread. (src/comm.cpp:98)
  using 1 OpenMP thread(s) per MPI task
Reading data file ...
  triclinic box = (-12.46485 -12.46485 -13.1118) to (12.46485 12.46485 13.1118) with tilt (0 0 0)
  2 by 2 by 4 MPI processor grid
  reading atoms ...
  832 atoms
  scanning bonds ...
  2 = max bonds/atom
  scanning angles ...
  6 = max angles/atom
  scanning dihedrals ...
  7 = max dihedrals/atom
  scanning impropers ...
  2 = max impropers/atom
  triclinic box = (-12.46485 -12.46485 -13.1118) to (12.46485 12.46485 13.1118) with tilt (0 0 0)
  2 by 2 by 4 MPI processor grid
  reading bonds ...
  1092 bonds
  reading angles ...
  2156 angles
  reading dihedrals ...
  160 dihedrals
  reading impropers ...
  32 impropers
Finding 1-2 1-3 1-4 neighbors ...
  special bond factors lj:    0        0        1       
  special bond factors coul:  0        0        1       
     4 = max # of 1-2 neighbors
     6 = max # of 1-3 neighbors
     9 = max # of special neighbors
  special bonds CPU = 0.015 seconds
  read_data CPU = 0.042 seconds
Setting atom values ...
  512 settings made for charge
Setting atom values ...
  256 settings made for charge
768 atoms in group zeo
64 atoms in group indole
System init for delete_bonds ...
PPPM initialization ...
  using 12-bit tables for long-range coulomb (src/kspace.cpp:342)
  G vector (1/distance) = 0.229178
  grid = 12 12 15
  stencil order = 5
  estimated absolute RMS force accuracy = 0.017901907
  estimated relative force accuracy = 5.391106e-05
  using double precision FFTW3
  3d grid and FFT values/proc = 1210 144
Generated 153 of 153 mixed pair_coeff terms from arithmetic mixing rule
WARNING: Neighbor exclusions used with KSpace solver may give inconsistent Coulombic energies (src/neighbor.cpp:654)
Neighbor list info ...
  update: every = 1 steps, delay = 5 steps, check = yes
  max neighbors/atom: 2000, page size: 100000
  master list distance cutoff = 14
  ghost atom cutoff = 14
  binsize = 7, bins = 4 4 4
  1 neighbor lists, perpetual/occasional/extra = 1 0 0
  (1) pair lj/cut/coul/long, perpetual
      attributes: half, newton on
      pair build: half/bin/newton/tri
      stencil: half/bin/3d/tri
      bin: standard
Deleting bonds ...
  1092 total bonds, 68 turned on, 1024 turned off
  2156 total angles, 108 turned on, 2048 turned off
  160 total dihedrals, 160 turned on, 0 turned off
  32 total impropers, 32 turned on, 0 turned off
PPPM initialization ...
  using 12-bit tables for long-range coulomb (src/kspace.cpp:342)
  G vector (1/distance) = 0.229178
  grid = 12 12 15
  stencil order = 5
  estimated absolute RMS force accuracy = 0.017901907
  estimated relative force accuracy = 5.391106e-05
  using double precision FFTW3
  3d grid and FFT values/proc = 1210 144
Generated 153 of 153 mixed pair_coeff terms from arithmetic mixing rule
WARNING: Neighbor exclusions used with KSpace solver may give inconsistent Coulombic energies (src/neighbor.cpp:654)
Setting up Verlet run ...
  Unit style    : real
  Current step  : 0
  Time step     : 1
Per MPI rank memory allocation (min/avg/max) = 11.55 | 11.62 | 11.74 Mbytes
   Step          Time          S/CPU           c_1            Temp          Press          PotEng         KinEng        Enthalpy        E_vdwl         E_coul         E_pair         E_bond        E_angle        E_dihed         E_long         E_tail         E_mol         Ecouple       Econserve        TotEng    
         0   0              0              700            53.068592      342.37991     -19834.053      131.45372     -19621.221     -36.382417      100.25049     -19934.534      15.068553      85.412421      1.3608226e-13 -19998.402      0              100.48097      0             -19702.6       -19702.6      
      1000   1000           2106.4952      761.61548      57.739801      158.18483     -19771.153      143.02456     -19590.53      -30.351485      98.395012     -19930.226      49.743188      80.451622      26.90841      -19998.27       0              159.07306     -72.604138     -19700.733     -19628.129    
      2000   2000           2046.5926      692.27777      52.483152      132.85202     -19765.026      130.00356     -19603.445     -29.600821      97.9773       -19930.55       43.199141      81.860032      37.61249      -19998.926      0              165.52418     -66.43074      -19701.453     -19635.022    
      3000   3000           2082.8499      595.21926      45.124926      411.05006     -19770.442      111.77684     -19560.965     -35.870197      99.677734     -19933.421      46.533163      76.593863      36.51435      -19997.228      0              162.97847     -42.682125     -19701.348     -19658.666    
      4000   4000           2073.3897      650.07654      49.283781      15.509883     -19760.873      122.07855     -19635.108     -37.26509       98.777978     -19936.383      59.480481      75.831008      37.276158     -19997.895      0              175.50954     -61.973581     -19700.768     -19638.794    
      5000   5000           2036.7931      729.12926      55.276947     -304.59081     -19759.304      136.92394     -19694.777     -39.278773      96.943541     -19939.636      53.144217      82.401663      42.178687     -19997.301      0              180.33204     -78.857778     -19701.238     -19622.38     
      6000   6000           2074.9452      778.39209      59.011675     -685.53382     -19770.223      146.17506     -19786.989     -33.657509      96.565695     -19935.545      61.131118      66.216876      35.250303     -19998.453      0              165.32245     -77.221487     -19701.269     -19624.048    
      7000   7000           2111.9069      582.00045      44.122778     -1176.059      -19784.629      109.29447     -19954.866     -45.67602       99.68508      -19944.786      54.053712      74.630914      29.001652     -19998.795      0              160.1568      -26.271808     -19701.606     -19675.334    
      8000   8000           2083.5142      745.7885       56.539922     -789.84901     -19773.99       140.05239     -19821.673     -36.4996        99.577329     -19934.031      51.94353       70.140537      35.413984     -19997.109      0              160.04095     -67.48663      -19701.424     -19633.938    
      9000   9000           2003.5325      770.99422      58.450825     -770.69471     -19776.009      144.7858      -19814.406     -43.751904      98.994755     -19942.778      54.753307      75.855673      33.24671      -19998.021      0              166.76856     -70.006194     -19701.23      -19631.224    
     10000   10000          2048.7114      589.84682      44.717629     -1590.796      -19782.19       110.76794     -20049.531     -43.660243      99.774422     -19941.158      55.713875      68.426175      32.107831     -19997.272      0              158.96729     -30.640332     -19702.063     -19671.422    
     11000   11000          2072.955       674.92524      51.167618     -1216.4332     -19763.526      126.74491     -19925.909     -41.501515      99.398384     -19939.995      67.865809      64.877076      40.192532     -19997.892      0              176.46885     -65.219144     -19702         -19636.781    
     12000   12000          2098.5235      822.23876      62.335791     -1074.0942     -19783.297      154.40907     -19884.184     -43.619937      97.402215     -19943.631      56.833525      75.052079      26.104522     -19997.413      0              160.33431     -72.594312     -19701.482     -19628.887    
     13000   13000          2185.3022      636.64037      48.265155      173.1817      -19793.115      119.55535     -19632.397     -37.511829      98.817853     -19936.935      38.527748      66.315458      36.523182     -19998.241      0              143.82041     -28.20609      -19701.766     -19673.56     
     14000   14000          2163.4341      711.45888      53.937316      262.95045     -19763.092      133.6056      -19566.987     -36.454562      94.024348     -19940.008      53.330026      71.167704      48.635724     -19997.578      0              176.91636     -71.770125     -19701.257     -19629.486    
     15000   15000          2132.3088      603.09339      45.721882     -823.26953     -19765.287      113.25553     -19847.71      -38.955007      100.70832     -19937.118      55.429643      70.747458      42.382523     -19998.872      0              171.83161     -48.983064     -19701.014     -19652.031    
     16000   16000          2140.3849      608.73242      46.149389     -1311.7769     -19744.257      114.31449     -19941.732     -42.825748      99.213557     -19941.063      62.180734      78.311054      52.31477      -19997.451      0              196.80647     -70.657027     -19700.599     -19629.942    
     17000   17000          2066.2674      694.26576      52.633866     -251.77613     -19767.733      130.37688     -19697.2       -36.605109      98.800193     -19937.202      60.842165      63.240273      41.898065     -19999.397      0              169.46825     -64.133298     -19701.49      -19637.356    
     18000   18000          2061.5729      770.71446      58.429616     -626.74096     -19759.278      144.73326     -19763.512     -36.914561      98.486107     -19935.972      54.057232      81.905857      38.215415     -19997.543      0              176.69367     -87.059474     -19701.604     -19614.545    
     19000   19000          2082.5249      728.1553       55.20311      -1429.1697     -19775.477      136.74104     -19978.429     -39.219926      98.439299     -19938.288      50.51574       75.555659      33.757469     -19997.508      0              162.81132     -62.396282     -19701.132     -19638.736    
     20000   20000          2135.1396      648.02739      49.12843      -1255.7466     -19755.971      121.69373     -19932.75      -43.452613      99.435073     -19940.552      53.119652      84.84578       43.18408      -19996.534      0              184.58089     -67.460996     -19701.738     -19634.277    
     21000   21000          2174.6338      627.88409      47.601321     -1745.2686     -19747.591      117.911       -20044.505     -40.918781      99.577579     -19938.921      76.11247       77.393766      34.864665     -19997.58       0              191.33005     -71.41484      -19701.095     -19629.68     
     22000   22000          2119.1557      585.3173       44.374236     -928.51599     -19755.276      109.91734     -19866.053     -35.264841      98.562511     -19934.242      55.131202      93.556129      27.835503     -19997.54       0              178.96695     -55.59164      -19700.95      -19645.358    
     23000   23000          2149.0806      686.60479      52.053071     -1683.3718     -19757.378      128.93822     -20028.552     -45.10424       100.06136     -19941.563      80.344235      65.69056       35.724441     -19996.52       0              184.18553     -72.585666     -19701.025     -19628.439    
     24000   24000          2061.9365      748.78474      56.767074     -427.00798     -19767.666      140.61506     -19728.545     -43.919644      96.512988     -19945.568      52.893706      77.792271      43.749798     -19998.161      0              177.90147     -73.985184     -19701.036     -19627.051    
     25000   25000          2195.1055      835.33176      63.3284        489.96307     -19750.625      156.86781     -19477.3       -25.82403       93.986521     -19929.459      66.903643      64.520005      44.068471     -19997.621      0              178.83359     -106.7811      -19700.538     -19593.757    
     26000   26000          2139.9779      752.40966      57.041887     -580.31983     -19766.901      141.29579     -19763.538     -35.089363      99.534063     -19932.15       60.296736      68.063353      34.352388     -19996.595      0              165.24941     -75.492511     -19701.097     -19625.605    
     27000   27000          2146.2765      634.66657      48.115516     -1304.5056     -19766.835      119.18469     -19957.712     -38.437648      97.532713     -19938.724      65.627788      69.094185      34.345942     -19997.819      0              171.8887      -53.448629     -19701.099     -19647.65     
     28000   28000          2110.6761      743.66261      56.378754     -561.59926     -19762.581      139.65317     -19756.411     -37.619081      97.026716     -19938.086      61.866588      69.82226       40.561651     -19997.494      0              175.50558     -78.228345     -19701.156     -19622.927    
     29000   29000          2131.066       649.91833      49.271787     -542.18142     -19773.086      122.04883     -19779.905     -40.727385      98.482083     -19940.712      56.247785      73.398809      35.402288     -19998.467      0              167.62643     -50.474692     -19701.512     -19651.037    
     30000   30000          2091.198       796.74816      60.40329      -890.09188     -19769.447      149.62216     -19831.386     -45.460872      98.910906     -19943.789      62.753091      67.205998      41.707383     -19997.239      0              174.34173     -81.034192     -19700.859     -19619.825    
     31000   31000          2137.1197      605.51776      45.905679     -90.793275     -19746.101      113.71081     -19653.971     -37.236547      98.491764     -19935.71       65.690705      70.836996      49.068715     -19996.965      0              189.60898     -68.460372     -19700.851     -19632.39     
     32000   32000          2142.3292      610.16036      46.257645     -153.90056     -19771.865      114.58264     -19693.862     -38.416462      101.88128     -19934.77       46.717963      87.125073      26.533971     -19998.235      0              162.90587     -44.22623      -19701.508     -19657.282    
     33000   33000          2184.1467      795.13754      60.281185      390.53037     -19762.237      149.3197      -19520.094     -38.456061      97.820985     -19939.486      63.607838      72.34312       38.114229     -19998.851      0              177.24886     -87.910407     -19700.828     -19612.917    
     34000   34000          2175.5985      637.30344      48.315423     -940.89443     -19778.646      119.67987     -19882.603     -44.207443      97.501836     -19944.665      74.184011      59.608646      30.265503     -19997.959      0              166.01847     -42.559588     -19701.526     -19658.966    
     35000   35000          2152.4189      743.73577      56.3843       -1211.5549     -19766.221      139.66691     -19914.522     -45.46206       97.048204     -19946.19       70.953554      62.102969      43.052603     -19997.776      0              179.96926     -74.803822     -19701.357     -19626.554    
     36000   36000          2151.2508      604.97308      45.864385     -541.7097      -19779.772      113.60852     -19794.92      -37.293807      96.33908      -19938.571      57.635144      78.878536      20.939521     -19997.617      0              158.79951     -35.260735     -19701.424     -19666.163    
     37000   37000          2107.1535      809.67461      61.383274     -1359.3823     -19771.107      152.04963     -19942.163     -47.040463      97.672713     -19948.41       78.859783      63.076848      32.833166     -19999.042      0              177.30286     -81.676808     -19700.734     -19619.057    
     38000   38000          2087.5152      763.36034      57.872083     -926.52806     -19756.469      143.35223     -19833.339     -36.186022      98.688355     -19935.253      72.104569      66.61401       37.024847     -19997.756      0              178.78435     -87.77664      -19700.893     -19613.117    
     39000   39000          2123.2473      607.33794      46.043671     -539.6818      -19758.98       114.05262     -19773.202     -34.543982      98.92553      -19934.565      73.635321      59.446133      39.511346     -19998.946      0              175.58448     -56.104083     -19701.032     -19644.927    
     40000   40000          2152.0323      684.71963      51.910152     -1222.7143     -19757.489      128.58421     -19919.526     -40.720388      95.596258     -19942.747      76.431433      69.976058      36.050049     -19997.623      0              185.25791     -71.700469     -19700.606     -19628.905    
     41000   41000          2172.9221      747.87825      56.698351     -98.194987     -19763.237      140.44483     -19646.132     -35.646808      99.009088     -19936.432      62.718876      69.819908      37.051513     -19999.794      0              173.19452     -78.281054     -19701.073     -19622.792    
     42000   42000          2154.9982      623.23615      47.24895      -1896.1488     -19752.988      117.03816     -20086.637     -41.332748      97.51457      -19939.992      81.195814      70.285968      32.543993     -19996.173      0              187.00336     -64.988551     -19700.939     -19635.95     
     43000   43000          2185.6934      699.38534      53.021993      902.82782     -19749.486      131.3383      -19403.559     -33.887206      99.32518      -19932.758      60.755989      88.216186      31.511827     -19998.196      0              183.27161     -82.759023     -19700.907     -19618.148    
     44000   44000          2206.4684      718.85319      54.497895     -1390.0249     -19784.968      134.99418     -19980.362     -43.708149      98.888142     -19941.275      62.250033      65.635488      26.61189      -19996.455      0              156.30693     -51.139345     -19701.113     -19649.974    
     45000   45000          2095.5623      724.21052      54.904046     -1065.7448     -19755.312      136.00024     -19872.624     -34.91464       98.136146     -19934.693      68.419164      67.086864      41.220734     -19997.914      0              179.38071     -81.963352     -19701.275     -19619.312    
     46000   46000          2144.3605      781.73555      59.26515      -432.50759     -19752.049      146.80293     -19708.047     -30.606156      94.737022     -19933.331      57.562613      86.71012       34.431631     -19997.462      0              181.28127     -95.443429     -19700.69      -19605.246    
     47000   47000          2149.6599      636.14594      48.227671     -2176.9871     -19757.63       119.4625      -20155.606     -40.544733      100.64112     -19935.896      78.228038      74.847488      23.323218     -19995.992      0              178.26529     -62.562944     -19700.731     -19638.168    
     48000   48000          2100.0783      701.73515      53.200138     -239.5151      -19781.716      131.77957     -19706.866     -40.402001      99.617159     -19938.764      61.758804      67.68323       25.802402     -19997.979      0              157.04756     -51.708752     -19701.645     -19649.936    
     49000   49000          2143.2792      729.82638      55.329798      301.41598     -19754.45       137.05485     -19545.753     -36.277856      98.916023     -19935.362      72.244526      76.936464      29.969457     -19998          0              180.91205     -82.520228     -19699.915     -19617.395    
     50000   50000          2205.3666      800.45775      60.684523     -235.48146     -19775.194      150.31879     -19680.846     -38.372155      101.17376     -19936.024      51.379351      72.16098       34.611906     -19998.825      0              160.82952     -75.921953     -19700.797     -19624.875    
     51000   51000          2224.7973      853.52104      64.707372     -1485.4795     -19779.506      160.2836      -19972.299     -44.156723      97.975811     -19944.218      58.03244       76.856317      27.679959     -19998.037      0              164.71143     -81.52608      -19700.749     -19619.223    
     52000   52000          2200.7444      637.66149      48.342568     -198.88905     -19747.946      119.74711     -19675.472     -37.571083      98.499765     -19937.006      75.108809      68.722893      42.302465     -19997.935      0              189.06018     -72.2977       -19700.496     -19628.199    
     53000   53000          2106.9804      688.43716      52.191987     -1612.6374     -19781.171      129.28233     -20035.189     -41.490217      97.920008     -19941.106      67.849271      66.006168      24.151106     -19997.536      0              159.93503     -49.041781     -19700.931     -19651.889    
     54000   54000          2138.3834      799.1328       60.584075      170.10171     -19744.438      150.06997     -19553.938     -36.143204      98.598127     -19933.914      66.350564      86.575058      33.793919     -19996.369      0              189.47542     -105.64389     -19700.012     -19594.368    
     55000   55000          2166.9239      778.47122      59.017673     -728.98339     -19762.808      146.18991     -19789.887     -41.287021      98.126854     -19941.348      61.584342      80.516334      34.341816     -19998.188      0              178.54023     -83.815316     -19700.433     -19616.618    
     56000   56000          2167.658       730.42304      55.375032     -129.66238     -19767.741      137.1669      -19661.393     -42.470167      102.10176     -19939.668      55.39769       68.069835      45.067523     -19999.3        0              171.92759     -69.7121       -19700.286     -19630.574    
     57000   57000          2129.1595      654.90842      49.650097     -1068.7706     -19763.019      122.98593     -19894.064     -40.539053      98.177525     -19940.829      68.326423      69.231298      37.875348     -19998.468      0              177.81001     -60.735085     -19700.768     -19640.033    
     58000   58000          2124.2785      763.6572       57.894589     -868.81355     -19740.948      143.40798     -19804.045     -36.314306      96.232522     -19937.303      64.730503      79.732876      47.726686     -19997.221      0              196.35427     -102.82719     -19700.368     -19597.54     
     59000   59000          2179.3446      593.33519      44.98209      -1321.4499     -19761.117      111.42303     -19963.783     -40.188451      97.342324     -19940.293      58.809873      68.321839      48.580701     -19997.447      0              179.17629     -50.744462     -19700.438     -19649.694    
     60000   60000          2168.3111      818.69058      62.066795     -1091.8419     -19761.684      153.74275     -19867.456     -42.452582      97.423959     -19943.065      57.256312      76.753408      42.544998     -19998.036      0              181.38095     -92.66179      -19700.603     -19607.941    
     61000   61000          2121.7684      848.68999      64.341119     -204.91001     -19777.926      159.37637     -19667.254     -40.071619      100.06208     -19939.235      47.90668       78.145691      32.947951     -19999.225      0              161.30888     -81.958392     -19700.508     -19618.55     
     62000   62000          2204.7358      595.39978      45.138612     -1090.3185     -19761.644      111.81074     -19908.986     -40.854516      98.816208     -19940.102      61.563485      73.368961      40.916876     -19998.064      0              178.45853     -50.577177     -19700.41      -19649.833    
     63000   63000          2129.485       813.58788      61.679948     -60.650726     -19753.631      152.78451     -19615.263     -37.8719        98.230668     -19939.406      54.916584      77.972866      49.31839      -19999.765      0              185.775       -99.239488     -19700.086     -19600.847    
     64000   64000          2097.4537      729.91141      55.336244     -1668.8459     -19756.54       137.07082     -20016.13      -38.515651      98.923844     -19936.358      65.322579      82.261231      30.018764     -19996.766      0              179.81782     -81.292229     -19700.762     -19619.469    
     65000   65000          2125.4235      702.30263      53.24316      -1509.3062     -19789.723      131.88614     -20016.576     -42.746139      96.580166     -19945.679      67.218216      67.393226      19.824758     -19999.513      0              155.95592     -42.812546     -19700.649     -19657.837    
     66000   66000          2095.3972      762.92894      57.839378     -1982.7266     -19772.501      143.27121     -20100.495     -48.1269        101.57887     -19944.697      57.785516      71.882635      39.900591     -19998.149      0              172.19564     -71.696787     -19700.927     -19629.23     
     67000   67000          2125.9046      725.14411      54.974824     -183.80394     -19769.864      136.17556     -19677.376     -37.768083      94.451377     -19941.27       59.872655      71.330557      37.065047     -19997.953      0              171.40566     -66.982483     -19700.671     -19633.688    
     68000   68000          2017.9604      711.45266      53.936844     -775.3533      -19770.127      133.60443     -19820.813     -41.522017      99.172133     -19938.917      57.746624      69.648576      38.038011     -19996.567      0              168.79021     -64.264571     -19700.787     -19636.523    
     69000   69000          2087.9088      668.33556      50.668039     -1016.4779     -19768.185      125.50743     -19884.279     -40.788297      97.944857     -19941.103      54.770024      67.436493      46.681609     -19998.259      0              172.91772     -57.904656     -19700.582     -19642.678    
     70000   70000          2042.8486      765.32123      58.020743     -311.52565     -19783.722      143.72047     -19714.046     -39.743495      95.484815     -19941.805      49.628077      67.504564      38.42044      -19997.546      0              158.08289     -60.840969     -19700.842     -19640.001    
     71000   71000          2082.0353      722.78708      54.796133     -461.19177     -19754.794      135.73293     -19728.68      -34.644954      96.059003     -19935.5        65.691558      70.54514       42.060939     -19996.914      0              180.70554     -81.1706       -19700.232     -19619.061    
     72000   72000          2109.339       622.07274      47.160749     -1210.2991     -19768.503      116.81968     -19939.354     -43.278534      97.075165     -19943.101      44.009081      96.31829       31.515428     -19996.898      0              174.59785     -49.557647     -19701.241     -19651.684    
     73000   73000          2082.7468      880.72952      66.770108      757.41525     -19770.594      165.39311     -19425.175     -33.612577      97.183318     -19934.768      56.082216      75.069895      30.333943     -19998.339      0              164.17353     -95.319449     -19700.521     -19605.201    
     74000   74000          2107.5083      846.99         64.212238      409.01346     -19782.33       159.05713     -19526.056     -33.386905      97.859367     -19934.24       40.707567      86.179959      23.591866     -19998.712      0              151.90979     -77.993596     -19701.266     -19623.273    
     75000   75000          2114.1771      658.15772      49.896434     -400.36328     -19757.709      123.59612     -19729.274     -36.163813      96.788746     -19936.399      62.453284      80.882781      32.766261     -19997.023      0              178.68914     -66.716446     -19700.83      -19634.113    
     76000   76000          2152.5775      607.27405      46.038827      67.547384     -19769.105      114.04062     -19639.009     -35.295872      98.61475      -19934.937      60.712978      68.611698      33.804943     -19998.256      0              165.83228     -45.817415     -19700.882     -19655.064    
     77000   77000          2149.628       729.7605       55.324803     -368.55105     -19767.302      137.04248     -19717.859     -40.888852      102.90322     -19936.26       50.284419      79.066427      36.529702     -19998.275      0              168.95774     -70.827062     -19701.087     -19630.26     
     78000   78000          2097.7502      556.34841      42.178038     -472.5362      -19777.408      104.47724     -19785.246     -31.640706      102.20858     -19927.92       47.71883       74.57124       26.312173     -19998.488      0              150.5119      -28.145824     -19701.077     -19672.931    
     79000   79000          2152.0002      746.69414      56.608581      12.188957     -19778.822      140.22246     -19635.702     -38.478998      98.256502     -19939.419      53.926728      78.704083      25.425536     -19999.196      0              160.59693     -62.639777     -19701.239     -19638.599    
     80000   80000          2139.3894      816.31688      61.88684       276.24848     -19785.372      153.29699     -19566.415     -32.094523      98.941938     -19930.766      42.738509      77.059567      23.988211     -19997.614      0              145.39442     -69.650907     -19701.726     -19632.075    
     81000   81000          2098.5069      575.92315      43.662044     -1721.6755     -19793.75       108.1532      -20094.813     -46.114035      99.941685     -19944.533      53.579673      67.9252        27.203847     -19998.361      0              150.78336     -15.953117     -19701.55      -19685.597    
     82000   82000          2073.5402      833.89446      63.219435     -174.51614     -19753.494      156.5979      -19638.376     -40.101407      96.9579       -19942.046      69.117345      74.491828      42.171026     -19998.902      0              188.55211     -103.28891     -19700.185     -19596.896    
     83000   83000          2103.7881      719.68697      54.561106     -98.73643      -19775.966      135.15076     -19664.284     -41.441152      97.3471       -19944.497      54.010424      76.731413      35.274393     -20000.403      0              168.53103     -60.338859     -19701.154     -19640.815    
     84000   84000          2157.42        727.61708      55.162305      706.95432     -19776.643      136.63996     -19471.97      -38.184381      100.91766     -19937.413      55.808052      72.06213       30.767596     -20000.147      0              160.77086     -61.202968     -19701.206     -19640.003    
     85000   85000          2159.2366      808.4053       61.287045     -21.031638     -19766.476      151.81127     -19619.663     -40.729952      100.59672     -19940.697      49.354057      80.637211      40.972633     -20000.564      0              174.22136     -86.879314     -19701.544     -19614.664    
     86000   86000          2151.6229      626.47196      47.494264     -709.79564     -19765.277      117.64582     -19816.34      -39.392267      99.964963     -19937.183      63.194772      76.806865      28.96051      -19997.756      0              171.90585     -53.501754     -19701.133     -19647.632    
     87000   87000          2155.3441      792.54381      60.084549     -1156.6542     -19758.698      148.83262     -19884.785     -39.168035      97.632344     -19939.213      67.018369      77.970883      33.325018     -19997.678      0              180.5153      -90.825924     -19700.692     -19609.866    
     88000   88000          2156.9954      640.07494      48.525537     -534.04768     -19768.782      120.20033     -19775.517     -38.176025      98.66599      -19938.851      68.972429      65.41183       33.791738     -19999.341      0              170.06917     -52.456177     -19701.038     -19648.581    
     89000   89000          2181.8977      677.35841      51.352081      365.4032      -19762.475      127.20184     -19548.422     -38.113743      96.618324     -19939.092      53.343188      80.276826      40.27495      -19997.597      0              176.61755     -66.118783     -19701.392     -19635.273    
     90000   90000          2183.1601      666.41054      50.522099     -392.09697     -19754.597      125.14592     -19722.647     -32.20495       96.520905     -19933.912      55.658395      83.626625      37.345926     -19998.228      0              179.31524     -71.432956     -19700.884     -19629.451    
     91000   91000          2130.8629      681.19274      51.642771     -270.40614     -19776.271      127.92189     -19712.62      -39.314087      97.214013     -19940.074      55.273407      72.758676      33.718059     -19997.973      0              163.80285     -52.585907     -19700.935     -19648.349    
     92000   92000          2151.4514      760.93221      57.688002      309.54866     -19755.288      142.89625     -19538.817     -40.158009      100.1159      -19938.024      62.083167      88.012936      30.174384     -19997.981      0              182.73553     -88.627477     -19701.019     -19612.392    
     93000   93000          2195.046       573.08903      43.447183     -399.2328      -19763.233      107.62098     -19750.504     -32.545457      96.157032     -19934.431      56.874931      79.632814      32.408616     -19998.042      0              171.19756     -45.355405     -19700.968     -19655.612    
     94000   94000          2152.2127      719.0396       54.512027      833.44669     -19766.589      135.02919     -19433.462     -36.67397       97.043356     -19937.713      69.005501      66.813343      32.687723     -19998.082      0              171.12348     -69.620521     -19701.181     -19631.56     
     95000   95000          2159.5504      707.79533      53.659574     -1260.1983     -19781.462      132.91762     -19948.075     -36.25197       96.910648     -19938.694      47.532047      71.818338      35.916095     -19999.353      0              157.23224     -52.601723     -19701.146     -19648.545    
     96000   96000          2151.3552      850.26901      64.460828     -1483.6666     -19768.786      159.6729      -19961.758     -40.079574      100.40538     -19938.19       46.184461      75.035113      44.719836     -19998.516      0              169.40426     -92.210202     -19701.323     -19609.113    
     97000   97000          2156.1173      653.00334      49.505668     -881.89733     -19755.878      122.62817     -19842.864     -35.634969      99.921627     -19932.893      55.602127      85.29306       33.87576      -19997.179      0              177.01511     -67.676673     -19700.926     -19633.25     
     98000   98000          2121.396       585.7588       44.407707     -30.420227     -19788.351      110.00025     -19685.582     -39.891207      99.306003     -19938.685      46.031678      65.11234       36.288654     -19998.1        0              150.334       -22.509973     -19700.861     -19678.351    
     99000   99000          2130.9175      667.84203      50.630624     -433.34855     -19760.858      125.41475     -19738.444     -35.529568      97.52666      -19935.264      54.176258      84.36055       33.212933     -19997.261      0              174.4063      -65.245289     -19700.689     -19635.443    
    100000   100000         2162.0283      653.38866      49.53488      -180.83305     -19754.785      122.70053     -19675.066     -39.345766      96.232077     -19940.321      62.951416      72.642093      46.782864     -19997.207      0              185.53607     -68.767144     -19700.852     -19632.085    
    101000   101000         2130.7494      712.66767      54.028957     -599.20804     -19780.419      133.8326      -19789.009     -40.300456      98.425077     -19940.613      60.944739      74.396054      23.243009     -19998.737      0              160.19371     -54.165479     -19700.752     -19646.587    
    102000   102000         2134.1559      764.27913      57.941739     -91.193633     -19799.585      143.52477     -19677.736     -44.26145       98.190153     -19945.63       45.493267      66.368691      31.369211     -19999.559      0              146.04476     -45.661982     -19701.723     -19656.061    
    103000   103000         2129.6377      636.19018      48.231024     -1033.3271     -19797.282      119.47081     -19923.418     -43.118446      98.006044     -19943.944      55.343218      68.183297      22.008805     -19998.832      0              146.66187     -23.809959     -19701.621     -19677.811    
    104000   104000         2186.5174      739.63481      56.073397     -1374.6193     -19767.989      138.89678     -19955.819     -38.061219      98.050488     -19939.557      59.283853      77.874211      31.825767     -19999.546      0              171.56798     -71.833404     -19700.925     -19629.092    
    105000   105000         2150.1685      631.19945      47.852666     -541.22202     -19763.664      118.5336      -19773.771     -39.427426      98.538993     -19938.442      51.276806      66.695406      52.571842     -19997.553      0              174.77744     -55.709912     -19700.84      -19645.131    
    106000   106000         2141.5103      731.95997      55.49155       419.82026     -19744.02       137.45552     -19506.78      -26.552503      99.363198     -19925.125      45.481954      82.474869      49.420926     -19997.935      0              181.1044      -93.801608     -19700.366     -19606.565    
    107000   107000         2147.8857      569.39716      43.167293     -816.4011      -19748.729      106.92768     -19835.848     -38.419436      97.542263     -19940.701      70.943084      82.823525      35.797012     -19999.824      0              191.97229     -58.183025     -19699.985     -19641.802    
    108000   108000         2143.3611      752.21226      57.026922     -714.98191     -19771.448      141.25872     -19800.13      -43.166511      100.97628     -19940.316      53.767025      69.156118      43.104658     -19998.125      0              168.86795     -70.425911     -19700.615     -19630.189    
    109000   109000         2125.5147      854.91431      64.812998     -951.69726     -19774.192      160.54524     -19839.851     -35.632565      100.1646      -19934.866      46.741412      81.727297      29.486827     -19999.398      0              160.67397     -86.927093     -19700.574     -19613.647    
    110000   110000         2153.6927      796.01692      60.347853     -148.82182     -19784.439      149.48484     -19670.327     -37.496921      101.36682     -19934.476      46.765884      71.289907      29.502683     -19998.345      0              150.0362      -66.766465     -19701.721     -19634.955    
    111000   111000         2173.7967      623.46997      47.266676     -476.93776     -19789.5        117.08207     -19785.779     -39.712776      98.109043     -19938.875      49.88593       62.322891      34.467589     -19997.272      0              149.37562     -28.935821     -19701.353     -19672.418    
    112000   112000         2137.8934      727.9383       55.186658     -787.75013     -19755.208      136.70029     -19805.744     -39.9681        102.50417     -19935.18       68.389376      78.739445      30.459653     -19997.716      0              179.97162     -81.761426     -19700.269     -19618.508    
    113000   113000         2169.4169      706.41376      53.554834      264.41308     -19776.286      132.65817     -19580.78      -32.125439      95.337418     -19935.03       48.415622      82.104776      26.064081     -19998.242      0              158.74463     -57.234456     -19700.862     -19643.627    
    114000   114000         2112.9166      708.39412      53.70497      -136.1776      -19783.371      133.03006     -19682.708     -39.526799      96.197203     -19940.305      53.312358      70.189756      31.022713     -19996.975      0              156.93409     -50.385095     -19700.726     -19650.34     
    115000   115000         2089.392       746.63636      56.604201     -1272.946      -19773.574      140.21161     -19935.923     -38.454447      99.418824     -19936.179      53.613592      78.124171      28.797286     -19997.143      0              162.60477     -67.330461     -19700.693     -19633.362    
    116000   116000         2155.6492      751.81116      56.996514     -34.594549     -19765.965      141.1834      -19633.004     -34.925501      98.085521     -19934.123      64.143488      75.923152      25.6805       -19997.283      0              168.15814     -75.020601     -19699.802     -19624.782    
    117000   117000         2163.0779      653.28127      49.526739     -468.73601     -19765.709      122.68036     -19754.441     -32.756325      95.670884     -19933.875      41.433496      84.490264      38.119483     -19996.79       0              168.16616     -57.526275     -19700.555     -19643.029    
    118000   118000         2152.5662      804.84472      61.017109     -707.70524     -19745.066      151.14262     -19762.135     -38.483733      97.634088     -19939.959      71.163845      78.031495      43.296525     -19999.11       0              194.89283     -105.6077      -19699.532     -19593.924    
    119000   119000         2179.4662      551.91424      41.841874      3.8368121     -19745.001      103.64455     -19640.444     -35.7995        98.324394     -19934.817      64.804637      71.618848      49.6619       -19997.342      0              189.81645     -58.657544     -19700.014     -19641.356    
    120000   120000         2210.6822      697.933        52.911888     -125.15777     -19785.44       131.06556     -19684.123     -35.14937       96.745423     -19936.347      41.624667      68.908104      37.288707     -19997.943      0              150.90665     -46.627503     -19701.002     -19654.375    
    121000   121000         2182.0012      746.0605       56.560543     -440.35524     -19767.174      140.10347     -19731.736     -31.353313      99.734348     -19930.21       55.976271      67.382639      36.654074     -19998.591      0              163.03587     -73.177136     -19700.248     -19627.07     
    122000   122000         2184.54        736.49789      55.83558      -1484.0055     -19770.695      138.3077      -19985.113     -40.395613      98.106496     -19940.476      61.50094       73.266632      31.8099       -19998.187      0              169.78151     -68.034062     -19700.421     -19632.387    
    123000   123000         2185.6143      613.02405      46.474748     -352.48769     -19777.252      115.12042     -19745.913     -31.852087      98.300438     -19930.773      52.596958      78.219001      20.867025     -19997.221      0              153.52067     -39.106628     -19701.238     -19662.132    
    124000   124000         2203.6422      728.88666      55.258556     -1144.9296     -19766.036      136.87838     -19901.291     -49.932592      98.582138     -19950.115      67.276547      76.341648      37.119383     -19998.764      0              184.07832     -71.537841     -19700.696     -19629.158    
    125000   125000         2190.629       706.77843      53.58248      -1340.1518     -19756.575      132.72665     -19942.383     -37.33723       100.68881     -19934.413      54.752421      91.359785      29.547099     -19997.764      0              177.83714     -77.006381     -19700.855     -19623.849    
    126000   126000         2147.8764      870.39072      65.9863       -467.8708      -19770.404      163.45157     -19718.158     -36.898647      99.785233     -19935.527      62.542631      65.629372      34.013169     -19998.413      0              165.1228      -93.84485      -19700.797     -19606.952    
    127000   127000         2148.9511      837.86859      63.520724     -268.18276     -19792.441      157.34421     -19698.84      -43.678847      96.720057     -19944.349      56.230706      68.705633      25.575939     -19997.39       0              151.9079      -66.086451     -19701.183     -19635.097    
    128000   128000         2167.6204      606.73488      45.997951     -1618.8632     -19765.942      113.93937     -20036.783     -39.63831       96.735479     -19940.211      69.892072      71.123246      30.815516     -19997.308      0              174.269       -48.460171     -19700.463     -19652.003    
    129000   129000         2136.5867      657.09315      49.815726     -674.83272     -19731.382      123.3962      -19768.383     -32.730532      99.420385     -19930.802      63.541051      91.613821      41.629259     -19997.492      0              199.42023     -91.986579     -19699.972     -19607.985    
    130000   130000         2211.2204      754.23623      57.180364      359.82389     -19750.87       141.6388      -19523.706     -32.312342      97.967034     -19932.847      57.00892       85.424852      36.652202     -19998.501      0              181.97685     -91.117257     -19700.348     -19609.231    
    131000   131000         2175.5534      661.21842      50.128472     -1036.6308     -19773.623      124.17089     -19895.844     -46.297529      98.510192     -19946.348      59.494909      79.239343      31.412408     -19998.56       0              172.7251      -51.526045     -19700.978     -19649.452    
    132000   132000         2231.8859      740.91479      56.170435      277.77839     -19760.009      139.13715     -19554.848     -40.81261       99.28736      -19940.266      66.114169      75.603111      36.743127     -19998.74       0              180.25676     -79.724312     -19700.596     -19620.872    
    133000   133000         2244.0076      671.7215       50.924735     -517.73745     -19755.007      126.14327     -19751.922     -43.071828      97.065816     -19944.941      68.633017      79.227946      38.742237     -19998.935      0              189.93416     -72.471869     -19701.335     -19628.864    
    134000   134000         2221.4404      656.28047      49.754115     -568.13662     -19781.365      123.24359     -19793.159     -42.389152      98.992396     -19941.788      55.389541      65.414185      35.978086     -19998.391      0              160.42279     -42.473565     -19700.595     -19658.121    
    135000   135000         2133.5757      698.75192      52.973972     -630.92246     -19763.104      131.21935     -19781.846     -29.21727       98.858739     -19928.203      54.161247      64.896503      43.321722     -19997.844      0              165.09866     -69.082072     -19700.967     -19631.885    
    136000   136000         2200.3554      715.5953       54.250907     -1258.4345     -19769.098      134.38238     -19933.827     -43.208122      99.019366     -19941.746      53.96775       74.060323      41.201275     -19997.557      0              172.64795     -66.320103     -19701.035     -19634.715    
    137000   137000         2207.2641      706.31912      53.547659     -7.9433825     -19769.632      132.6404      -19638.88      -37.689357      98.117937     -19938.454      47.557372      84.382483      33.949552     -19998.883      0              168.82186     -63.930718     -19700.923     -19636.992    
    138000   138000         2199.7711      689.08006      52.240726     -668.53199     -19728.263      129.40306     -19757.76      -32.146883      99.138375     -19930.497      69.565183      78.809296      49.402455     -19997.489      0              202.23458     -100.80368     -19699.663     -19598.86     
    139000   139000         2199.0081      753.1285       57.096384     -951.46957     -19748.728      141.43078     -19833.447     -44.098648      96.584647     -19945.634      63.564911      82.473046      47.812533     -19998.12       0              196.9059      -93.20722      -19700.504     -19607.297    
    140000   140000         2182.9089      720.36779      54.61272      -1531.8174     -19776.501      135.27861     -20005.313     -39.906267      98.885004     -19939.125      48.895439      78.758231      32.412799     -19998.103      0              162.62327     -59.496005     -19700.719     -19641.223    
    141000   141000         2170.7148      608.78993      46.153749     -1475.2362     -19740.063      114.32529     -19976.38      -35.935864      96.972203     -19935.914      67.329764      78.237898      46.400906     -19996.95       0              195.85058     -74.615937     -19700.354     -19625.738    
    142000   142000         2199.0315      599.31496      45.43543      -2032.417      -19786.952      112.54598     -20157.481     -46.372265      98.368919     -19946.351      55.737239      68.006334      32.994882     -19998.347      0              159.39915     -26.416535     -19700.822     -19674.406    
    143000   143000         2235.6208      711.47674      53.93867      -1108.6296     -19760.615      133.60895     -19890.511     -37.58069       93.010035     -19941.111      69.781781      70.789731      36.681786     -19996.541      0              180.49592     -73.336683     -19700.343     -19627.007    
    144000   144000         2230.025       623.13702      47.241435     -658.8397      -19756.903      117.01955     -19796.48      -33.627781      99.982282     -19929.97       56.889264      79.367834      33.811516     -19996.324      0              173.06676     -60.651125     -19700.534     -19639.883    
    145000   145000         2188.5526      611.83951      46.384945     -1320.6802     -19779.307      114.89797     -19978.315     -45.124632      99.620648     -19943.271      54.584044      84.693919      23.222567     -19997.767      0              163.96352     -36.3035       -19700.713     -19664.409    
    146000   146000         2175.6734      644.58789      48.867674     -1457.3273     -19748.467      121.04783     -19973.805     -39.24895       99.638963     -19938.174      64.176817      87.33557       35.609761     -19998.564      0              189.70652     -73.229683     -19700.649     -19627.42     
    147000   147000         2189.9417      750.15255      56.870771     -118.84293     -19778.775      140.87192     -19666.15      -40.36315       98.886665     -19940.331      58.470377      73.491724      27.604117     -19998.855      0              161.55617     -63.325038     -19701.228     -19637.903    
    148000   148000         2196.8253      530.4184       40.212226     -1550.5335     -19753.199      99.60782      -20022.13      -42.803718      98.692709     -19941.954      67.856953      67.403976      50.546697     -19997.843      0              188.75479     -46.951605     -19700.543     -19653.591    
    149000   149000         2204.13        806.11483      61.113398     -456.77209     -19779.629      151.38114     -19736.816     -42.538473      98.414806     -19942.61       56.571861      66.753638      36.581858     -19998.486      0              162.98062     -72.91816      -19701.166     -19628.248    
    150000   150000         2248.3102      695.82644      52.752185     -318.15861     -19776.794      130.66997     -19721.746     -35.825362      94.647893     -19938.68       48.074856      77.992555      33.031937     -19997.502      0              161.88544     -54.751512     -19700.876     -19646.124    
    151000   151000         2235.4007      835.52274      63.342879     -656.89898     -19742.178      156.90368     -19741.41      -43.630103      98.446149     -19941.835      52.597189      87.43826       55.37002      -19996.651      0              199.65678     -115.52686     -19700.801     -19585.274    
    152000   152000         2230.3668      606.47064      45.977919      435.22543     -19764.272      113.88975     -19546.935     -34.627791      95.908588     -19937.479      55.515766      73.95978       40.352294     -19998.76       0              173.20699     -50.648786     -19701.031     -19650.382    
    153000   153000         2189.1292      652.96197      49.502532     -1166.0102     -19774.328      122.6204      -19928.851     -44.792919      98.463667     -19944.98       59.057035      75.08853       34.142402     -19998.651      0              170.65223     -49.299349     -19701.007     -19651.708    
    154000   154000         2189.4794      724.80291      54.948957     -552.52438     -19756.231      136.11149     -19751.447     -38.215732      95.895799     -19939.058      55.979056      84.565272      39.465057     -19996.738      0              182.82684     -80.485362     -19700.605     -19620.12     
    155000   155000         2194.3147      619.01213      46.928718     -656.61471     -19782.751      116.24493     -19822.574     -40.796256      98.321624     -19941.301      51.977522      66.683647      36.89481      -19998.827      0              158.54991     -34.804036     -19701.311     -19666.507    
    156000   156000         2197.4994      796.35944      60.37382       443.18058     -19769.11       149.54916     -19514.223     -29.87005       94.122913     -19932.766      40.25226       80.122974      39.929505     -19997.019      0              163.65629     -81.791551     -19701.352     -19619.561    
    157000   157000         2225.5633      565.78854      42.893716     -1240.7709     -19757.665      106.25001     -19946.328     -43.820243      99.786046     -19942.911      65.280966      74.255227      42.892592     -19998.877      0              185.24569     -49.391778     -19700.807     -19651.415    
    158000   158000         2236.1564      661.81118      50.173411      422.18045     -19758.41       124.2822      -19533.782     -34.321667      99.299701     -19933.507      60.972755      79.113462      32.653429     -19998.485      0              175.09678     -66.887139     -19701.015     -19634.128    
    159000   159000         2229.4706      693.04105      52.541018     -1945.3128     -19740.405      130.14689     -20072.63      -39.230146      99.359971     -19936.756      76.585645      84.523589      33.225421     -19996.886      0              196.35178     -89.918502     -19700.176     -19610.258    
    160000   160000         2237.3992      628.50623      47.648487      720.09166     -19747.789      118.02783     -19458.606     -30.248023      98.396176     -19929.655      60.116696      80.363404      37.974572     -19997.803      0              181.86617     -71.004531     -19700.766     -19629.761    
    161000   161000         2235.6748      614.19749      46.563709     -981.89783     -19750.128      115.34078     -19868.17      -40.236709      98.140589     -19939.121      75.578809      74.434936      35.889927     -19997.024      0              188.99235     -65.642227     -19700.43      -19634.787    
    162000   162000         2256.8411      733.31802      55.594507     -1383.8165     -19749.626      137.71055     -19940.828     -48.645708      99.650357     -19948.36       72.109813      79.915221      43.878776     -19999.365      0              198.73413     -88.21668      -19700.132     -19611.915    
    163000   163000         2200.4405      673.86         51.086859     -6.0417825     -19742.354      126.54486     -19617.245     -35.603139      97.551041     -19935.832      67.173555      81.458234      41.40094      -19997.78       0              193.47806     -84.452985     -19700.262     -19615.809    
    164000   164000         2212.028       611.69028      46.373632     -1225.9099     -19762.482      114.86995     -19938.993     -42.018848      97.460273     -19943.164      63.363243      86.193657      28.675492     -19998.605      0              180.68213     -53.216237     -19700.828     -19647.612    
    165000   165000         2190.8136      632.87877      47.979979     -699.19412     -19754.373      118.84896     -19801.712     -43.247803      96.485173     -19945.775      81.654797      75.486212      32.555489     -19999.013      0              191.40201     -65.067582     -19700.592     -19635.524    
    166000   166000         2262.2742      591.8184       44.867099     -1213.8499     -19765.948      111.13819     -19943.324     -41.698504      96.985946     -19941.977      63.164986      66.96578       43.05865      -19997.265      0              176.0298      -46.159299     -19700.969     -19654.809    
    167000   167000         2178.1594      642.95458      48.743849     -1343.9134     -19755.6        120.7411      -19954.287     -42.160183      101.14424     -19938.466      59.418983      78.749661      41.758886     -19997.45       0              182.86545     -65.605373     -19700.464     -19634.859    
    168000   168000         2190.3763      745.98549      56.554856     -991.08867     -19739.635      140.08939     -19835.113     -46.196443      98.371893     -19945.038      57.493613      86.00921       56.764242     -19997.213      0              205.40238     -100.57319     -19700.119     -19599.546    
    169000   169000         2201.3756      636.58633      48.261057     -1089.4092     -19720.391      119.5452      -19859.782     -39.063824      103.86327     -19934.424      81.104671      84.904575      44.604649     -19999.223      0              214.03297     -98.526667     -19699.372     -19600.845    
    170000   170000         2174.2451      736.2391       55.815961     -852.71675     -19777.15       138.2591      -19841.569     -43.822418      99.920117     -19941.599      46.279258      78.430229      37.549399     -19997.697      0              164.44948     -61.992303     -19700.883     -19638.891    
    171000   171000         2201.7059      673.33316      51.046918     -260.8083      -19739.324      126.44593     -19674.868     -36.882947      96.359506     -19938.474      51.196736      81.685065      60.955166     -19997.951      0              199.14999     -87.364281     -19700.242     -19612.878    
    172000   172000         2198.2824      686.01736      52.008536     -1108.7175     -19723.505      128.82791     -19858.203     -39.312789      99.72032      -19938.185      81.738039      86.725402      42.173282     -19998.592      0              214.67949     -104.46729     -19699.145     -19594.677    
    173000   173000         2196.8272      688.66148      52.208993     -1712.5767     -19777.297      129.32445     -20055.027     -49.548864      99.673067     -19949.368      60.409585      73.519193      35.512301     -19999.492      0              172.07133     -52.69542      -19700.668     -19647.972    
    174000   174000         2188.9839      617.78507      46.835691      127.6592      -19772.324      116.0145      -19625.967     -37.904841      98.976674     -19937.351      51.69623       72.306564      38.143793     -19998.423      0              165.02627     -44.364688     -19700.675     -19656.31     
    175000   175000         2130.0823      651.32474      49.37841      -205.24186     -19736.864      122.31295     -19663.334     -34.229991      100.49679     -19933.196      58.914887      78.685965      53.950188     -19999.462      0              196.33214     -85.422612     -19699.973     -19614.551    
    176000   176000         2144.7347      574.68049      43.567835     -45.479315     -19756.096      107.91984     -19658.986     -31.273886      97.940952     -19933.027      54.111117      75.231528      44.950953     -19999.694      0              176.93066     -52.053856     -19700.23      -19648.176    
    177000   177000         2130.2896      680.95841      51.625006      288.70625     -19758.642      127.87788     -19562.143     -38.379159      96.821712     -19941.068      56.865913      76.696624      45.599213     -19999.511      0              182.42647     -69.918002     -19700.682     -19630.764    
    178000   178000         2182.8035      783.87771      59.427552      237.42274     -19769.613      147.2052      -19565.976     -41.369193      98.824258     -19941.331      42.83182       75.076245      50.157506     -19998.786      0              171.71748     -78.265098     -19700.673     -19622.408    
    179000   179000         2171.3544      735.09999      55.729602      152.34507     -19784.821      138.04519     -19610.566     -35.175738      96.856947     -19936.326      51.512892      68.258714      29.547393     -19998.007      0              151.50452     -54.23946      -19701.015     -19646.776    
    180000   180000         2185.8352      724.4811       54.92456      -507.76376     -19759.09       136.05105     -19743.726     -34.616797      97.877313     -19934.104      65.376289      67.167286      38.909338     -19997.364      0              175.0142      -77.888501     -19700.927     -19623.038    
    181000   181000         2183.9927      606.59595      45.987419     -1075.3738     -19768.546      113.91328     -19910.233     -39.376222      98.213018     -19938.164      46.275587      88.878047      31.981247     -19997          0              169.61807     -45.65873      -19700.291     -19654.632    
    182000   182000         2210.9265      662.29103      50.209789     -717.78864     -19752.886      124.37232     -19799.121     -34.091303      94.894237     -19936.555      53.253614      83.26835       42.902923     -19997.358      0              183.66915     -71.486372     -19700         -19628.513    
    183000   183000         2166.9371      776.22962      58.847733     -930.00121     -19750.036      145.76896     -19825.315     -32.570732      96.806185     -19933.579      54.520619      79.836233      45.914424     -19997.814      0              183.54254     -96.098971     -19700.366     -19604.267    
    184000   184000         2155.1664      634.79503      48.125255     -348.11536     -19756.132      119.20882     -19719.665     -35.039359      96.957814     -19936.775      57.323511      68.68505       50.125174     -19998.693      0              180.64301     -62.967779     -19699.891     -19636.923    
    185000   185000         2182.8532      738.33236      55.974656      75.214253     -19757.405      138.6522      -19600.875     -34.237175      99.701023     -19932.732      58.611922      79.944645      33.86362      -19998.196      0              175.32703     -81.690823     -19700.443     -19618.753    
    186000   186000         2182.4         690.34774      52.336832     -249.47836     -19778.491      129.64112     -19708.147     -36.789042      97.475262     -19935.914      46.214412      73.755184      33.91302      -19996.601      0              157.42326     -51.789077     -19700.639     -19648.85     
    187000   187000         2167.4166      653.39026      49.535002     -948.71807     -19761.119      122.70083     -19863.915     -43.369633      99.935831     -19942.791      64.627472      70.935601      42.850657     -19999.358      0              181.67206     -62.800182     -19701.219     -19638.419    
    188000   188000         2182.1156      720.04741      54.588432     -1698.5005     -19761.806      135.21845     -20030.296     -43.88908       96.387278     -19944.414      61.951421      75.455071      42.590603     -19996.912      0              182.6079      -73.493864     -19700.081     -19626.588    
    189000   189000         2121.1839      643.86936      48.813201     -920.66229     -19780.73       120.91289     -19878.645     -39.202842      97.015429     -19940.409      46.412947      70.805728      40.074112     -19998.222      0              159.67965     -41.532366     -19701.349     -19659.817    
    190000   190000         2180.3684      810.80915      61.469286     -167.24588     -19760.215      152.26269     -19647.704     -39.592332      96.078694     -19941.547      56.336854      80.753976      41.174659     -19998.034      0              181.33203     -91.937245     -19699.89      -19607.952    
    191000   191000         2148.9559      679.28379      51.498049     -587.87409     -19768.915      127.56341     -19781.08      -43.613764      99.077321     -19943.038      61.12624       73.76          36.304091     -19998.502      0              174.1236      -59.183009     -19700.534     -19641.351    
    192000   192000         2125.6788      863.79535      65.48629      -1787.2619     -19738.734      162.21302     -20001.327     -42.263378      98.999874     -19941.325      78.647621      75.491838      44.72374      -19998.062      0              202.59085     -123.70498     -19700.226     -19576.521    
    193000   193000         2184.8505      677.79391      51.385098     -184.75584     -19760.519      127.28362     -19677.149     -34.530664      99.881244     -19932.228      59.540524      74.082795      34.611286     -19997.578      0              171.70844     -66.825541     -19700.061     -19633.236    
    194000   194000         2197.4847      696.84024      52.829043      211.33637     -19776.765      130.86035     -19595.673     -34.697047      97.911164     -19933.165      47.159943      70.048948      36.241831     -19996.379      0              156.40044     -54.858953     -19700.763     -19645.904    
    195000   195000         2182.9053      660.63742      50.084425     -187.0232      -19747.107      124.06178     -19667.498     -28.409947      98.211757     -19927.763      56.235612      79.439357      41.170925     -19997.565      0              180.65594     -77.694235     -19700.739     -19623.045    
    196000   196000         2240.9256      711.97784      53.97666       8.9586029     -19784.346      133.70306     -19648.513     -35.691037      96.871405     -19936.764      51.017836      63.624418      35.203729     -19997.944      0              152.41812     -50.281002     -19700.923     -19650.642    
    197000   197000         2142.0307      718.4085       54.464183     -169.80558     -19780.85       134.91068     -19686.299     -35.466539      99.440167     -19934.128      47.748627      74.147588      29.210782     -19998.102      0              153.27818     -54.939829     -19700.879     -19645.939    
    198000   198000         2119.7808      752.75873      57.068351     -36.98669      -19748.786      141.36134     -19616.216     -32.236002      96.87711      -19931.44       72.07793       74.922597      32.956743     -19996.081      0              182.65419     -92.664002     -19700.089     -19607.425    
    199000   199000         2127.3519      845.39622      64.09141      -338.70733     -19756.612      158.75783     -19678.36      -35.344584      94.41957      -19938.148      61.213833      81.255847      36.006079     -19997.223      0              181.53576     -102.13578     -19699.99      -19597.854    
    200000   200000         2064.6375      778.96775      59.055317      420.71083     -19758.398      146.28316     -19512.118     -35.77229       99.801687     -19933.119      59.981327      85.837698      26.438482     -19997.149      0              174.72143     -88.579701     -19700.694     -19612.115    
    201000   201000         2136.6133      614.57768      46.592532      143.32178     -19766.394      115.41218     -19616.917     -31.097817      99.11177      -19929.82       61.520815      66.348231      32.859339     -19997.834      0              163.4258      -49.392088     -19700.374     -19650.982    
    202000   202000         2074.2331      742.60413      56.298508     -78.16593      -19752.904      139.4544      -19632.029     -32.818127      98.165792     -19932.176      62.292846      64.244101      48.277295     -19997.523      0              179.27173     -87.053194     -19700.503     -19613.45     
    203000   203000         2144.4622      589.12242      44.662711     -158.9059      -19791.075      110.63191     -19718.213     -36.309677      96.843461     -19937.614      56.575753      60.961361      26.942109     -19998.148      0              146.53917     -20.128757     -19700.572     -19680.443    
    204000   204000         2181.1927      650.27168      49.298575     -1115.7355     -19759.618      122.11519     -19902.697     -35.890807      97.967094     -19936.045      43.767615      87.387778      41.645375     -19998.121      0              176.42664     -62.545001     -19700.048     -19637.503    
    205000   205000         2132.8526      663.00957      50.264263     -370.75561     -19749.458      124.50725     -19713.074     -35.832933      98.791157     -19934.775      56.445084      79.191986      46.647469     -19997.733      0              185.31703     -74.813135     -19699.764     -19624.951    
    206000   206000         2146.5227      643.44327      48.780898     -482.89085     -19784.812      120.83288     -19778.755     -36.687523      100.16747     -19934.546      43.678807      70.280627      33.892343     -19998.026      0              149.73449     -36.815418     -19700.794     -19663.979    
    207000   207000         2155.9263      699.0493       52.996518     -748.877       -19760.236      131.27519     -19806.958     -43.411292      100.20748     -19940.34       53.196422      81.041351      42.403971     -19997.136      0              180.10323     -71.259495     -19700.221     -19628.961    
    208000   208000         2148.167       802.41741      60.833089     -745.00175     -19752.497      150.68679     -19778.886     -27.832722      99.411527     -19926.744      47.638155      75.894459      46.464938     -19998.323      0              174.24682     -98.490394     -19700.301     -19601.81     
    209000   209000         2154.1508      622.60241      47.200905     -713.58109     -19768.164      116.91915     -19820.853     -41.300873      98.157323     -19940.977      66.701018      75.222768      29.083265     -19997.833      0              172.81239     -48.896555     -19700.142     -19651.245    
    210000   210000         2184.9065      658.51102      49.923218     -1236.2483     -19754.484      123.66247     -19924.66      -40.265234      96.757001     -19941.535      63.913321      81.645837      38.958487     -19998.027      0              187.05121     -69.359432     -19700.181     -19630.822    
    211000   211000         2178.3121      754.2919       57.184585     -919.48349     -19754.974      141.64926     -19831.872     -36.875837      98.956958     -19936.362      75.171725      71.996539      31.486745     -19998.443      0              181.38852     -86.481312     -19699.806     -19613.324    
    212000   212000         2198.5876      523.45402      39.68424      -440.16979     -19786.759      98.299971     -19793.081     -39.365156      98.794411     -19939.679      40.461265      77.235181      32.4765       -19999.108      0              152.91964     -12.145843     -19700.605     -19688.459    
    213000   213000         2183.4324      655.35916      49.684268     -1372.3818     -19746.809      123.07057     -19949.933     -37.252858      98.41228      -19938.243      57.680842      82.849225      48.202707     -19999.403      0              191.43444     -75.964286     -19699.703     -19623.738    
    214000   214000         2171.9753      732.83262      55.557708     -14.786071     -19773.457      137.6194      -19639.352     -39.406536      98.527656     -19939.974      48.421778      75.409925      40.101852     -19999.095      0              166.51739     -64.542192     -19700.379     -19635.837    
    215000   215000         2179.3467      768.90659      58.292558     -1084.4549     -19748.309      144.39376     -19861.674     -40.287521      100.59658     -19938.457      55.399987      81.618593      49.876334     -19998.766      0              190.14827     -96.066211     -19699.982     -19603.915    
    216000   216000         2175.7851      656.77627      49.791703      340.0823      -19756          123.3367      -19551.83      -37.589028      95.45558      -19940.664      60.663841      73.455405      46.735572     -19998.531      0              184.66448     -67.445108     -19700.108     -19632.663    
    217000   217000         2102.089       740.87814      56.167657     -1428.0123     -19772.98       139.13027     -19973.267     -41.101538      98.228506     -19940.139      45.468212      69.63859       48.589269     -19997.266      0              167.1589      -66.628746     -19700.478     -19633.849    
    218000   218000         2088.2943      714.73306      54.185539     -612.23784     -19761.765      134.22046     -19773.064     -37.449932      100.29191     -19934.053      57.369666      74.063252      38.193889     -19996.895      0              172.2887      -72.43816      -19699.982     -19627.544    
    219000   219000         2127.5367      631.0905       47.844406     -35.829606     -19750.843      118.51314     -19640.846     -28.321168      96.831781     -19930.551      44.853132      73.493674      55.734653     -19999.062      0              179.70845     -67.794077     -19700.124     -19632.33     
    220000   220000         2105.1524      570.71889      43.267497      559.52316     -19753.925      107.17589     -19513.758     -26.101271      97.896062     -19925.574      43.558577      78.756517      45.441689     -19997.369      0              171.64925     -53.741965     -19700.491     -19646.749    
    221000   221000         2193.0572      648.13993      49.136962     -830.58842     -19738.855      121.71487     -19814.559     -33.394336      95.212914     -19934.429      70.431875      68.06579       52.745151     -19996.248      0              195.57359     -82.901702     -19700.042     -19617.141    
    222000   222000         2118.5491      713.01368      54.055189     -354.98001     -19761.787      133.89758     -19712.263     -36.992433      98.722276     -19935.644      56.048542      69.873563      44.848903     -19997.374      0              173.85719     -72.269446     -19700.159     -19627.89     
    223000   223000         2156.8183      738.01066      55.950267     -887.15288     -19767.866      138.59178     -19840.137     -33.175253      97.198108     -19932.91       43.726629      82.272816      36.131199     -19996.933      0              165.04468     -71.359582     -19700.633     -19629.274    
    224000   224000         2098.9862      661.3949       50.141852      116.49585     -19770.721      124.20403     -19618.828     -35.605885      96.056457     -19936.881      46.826874      82.834029      33.553601     -19997.332      0              166.1606      -54.24736      -19700.764     -19646.517    
    225000   225000         2115.8903      668.7248       50.697548      502.47418     -19781.739      125.58052     -19536.728     -37.001782      100.27046     -19935.221      46.469882      73.602469      31.53446      -19998.489      0              153.48108     -44.218283     -19700.377     -19656.159    
    226000   226000         2111.0418      690.13105      52.320404      429.3976      -19740.005      129.60042     -19508.343     -30.817938      96.942348     -19932.167      62.413916      85.48661       42.078736     -19998.291      0              192.16168     -89.14653      -19699.551     -19610.405    
    227000   227000         2175.3481      820.58798      62.210641     -1411.8756     -19779.27       154.09906     -19960.753     -36.699491      97.366018     -19937.102      50.281358      84.111089      22.211466     -19997.769      0              157.83188     -75.22408      -19700.395     -19625.171    
    228000   228000         2096.3135      683.04993      51.783568     -1915.8965     -19788.397      128.27065     -20115.507     -47.257253      97.928688     -19948.61       61.04877       70.422327      26.311331     -19999.281      0              160.21212     -40.326106     -19700.453     -19660.127    
    229000   229000         2157.5504      887.54238      67.286607     -13.170128     -19764.281      166.6725      -19600.738     -33.838009      94.794756     -19936.862      60.901525      64.37283       44.102811     -19997.819      0              172.58167     -102.38133     -19699.989     -19597.608    
    230000   230000         2155.2933      705.82027      53.50984      -799.22661     -19770.938      132.54672     -19828.356     -40.334049      101.05573     -19938.33       50.073108      70.929607      42.376385     -19999.052      0              167.39151     -62.187329     -19700.579     -19638.392    
    231000   231000         2179.6891      687.83407      52.146265     -1001.9966     -19758.457      129.16907     -19867.447     -38.401292      100.4919      -19937.349      57.939655      74.811752      42.7609       -19999.439      0              178.89189     -70.999637     -19700.287     -19629.288    
    232000   232000         2114.3775      733.58054      55.614409     -407.1708      -19778.374      137.75985     -19737.393     -40.556161      97.01858      -19942.493      52.465344      66.461707      42.113119     -19998.955      0              164.11863     -59.872324     -19700.487     -19640.615    
    233000   233000         2115.8683      753.31164      57.110268     -525.87722     -19771.635      141.46517     -19755.164     -36.617993      96.567125     -19937.97       48.237659      62.965249      51.548371     -19997.919      0              166.33479     -70.272687     -19700.443     -19630.17     
    234000   234000         2086.8624      781.04317      59.212659      641.46606     -19773.205      146.6729      -19474.065     -36.501214      96.373637     -19938.613      45.230328      70.403229      45.958845     -19998.486      0              165.40849     -73.964519     -19700.496     -19626.532    
    235000   235000         2108.658       655.46456      49.692259      107.2401      -19766.797      123.09037     -19618.217     -38.630664      96.753254     -19939.685      55.322842      67.617049      46.488152     -19997.807      0              172.88784     -56.581218     -19700.288     -19643.706    
    236000   236000         2120.2194      694.19382      52.628412     -1325.045      -19753.485      130.36337     -19938.065     -34.871077      95.955731     -19935.851      64.1569        66.877842      47.916386     -19996.935      0              182.36596     -77.209694     -19700.331     -19623.121    
    237000   237000         2114.9595      735.65714      55.771841     -16.229109     -19779.865      138.14981     -19645.572     -39.926526      98.017544     -19940.738      50.04911       71.177632      36.024879     -19998.829      0              160.87392     -58.751766     -19700.466     -19641.715    
    238000   238000         2085.6551      680.98718      51.627187      479.29621     -19778.678      127.88329     -19536.873     -29.546431      98.27181      -19928.043      37.294728      79.910793      29.403806     -19996.768      0              149.36499     -49.747098     -19700.542     -19650.795    
    239000   239000         2122.7639      909.60191      68.95899       1065.8494     -19783.113      170.81508     -19358.961     -27.066073      98.474185     -19926.884      41.753938      71.636876      28.575347     -19998.292      0              143.77099     -87.79096      -19700.089     -19612.298    
    240000   240000         2131.8774      674.03084      51.099811      52.284883     -19780.198      126.57695     -19641.193     -38.292775      100.50157     -19935.809      45.000328      69.874185      37.822886     -19998.018      0              155.61153     -47.278744     -19700.899     -19653.621    
    241000   241000         2097.3265      724.77305      54.946693     -488.60862     -19760.518      136.10588     -19740.548     -34.842415      94.687968     -19936.458      65.852869      67.696324      39.460184     -19996.304      0              175.9398      -75.402585     -19699.815     -19624.412    
    242000   242000         2122.1684      747.50738      56.670235     -50.348691     -19761.433      140.37518     -19633.025     -30.243359      96.190095     -19930.232      52.107074      71.446668      41.844471     -19996.179      0              168.79875     -79.936119     -19700.994     -19621.058    
    243000   243000         2103.5377      647.21742      49.067025     -813.7624      -19765.996      121.54163     -19837.874     -35.858362      96.742785     -19937.54       56.644673      82.909055      29.414102     -19998.425      0              171.54399     -55.728541     -19700.183     -19644.455    
    244000   244000         2081.4322      699.72736      53.047923     -594.87008     -19763.837      131.40252     -19773.826     -38.483174      100.31025     -19936.889      52.277034      77.888237      40.541145     -19998.716      0              173.05223     -68.312686     -19700.747     -19632.434    
    245000   245000         2135.8963      588.79734      44.638065      297.79988     -19768.813      110.57086     -19587.46      -31.410789      97.624912     -19931.6        72.330798      64.139853      25.14321      -19997.814      0              162.78684     -42.542297     -19700.784     -19658.242    
    246000   246000         2137.0459      669.12533      50.727913     -600.72441     -19766.275      125.65574     -19783.402     -35.938515      98.484158     -19935.479      63.184458      63.71359       39.353454     -19998.025      0              169.20458     -59.986171     -19700.605     -19640.619    
    247000   247000         2139.7018      700.40544      53.099329     -442.29254     -19758.695      131.52986     -19732.292     -41.294652      96.163847     -19944.268      73.266888      65.708301      43.515878     -19999.137      0              185.57218     -72.225475     -19699.391     -19627.166    
    248000   248000         2120.8197      723.16301      54.824632     -206.27472     -19779.927      135.80353     -19693.152     -36.588667      97.467371     -19936.736      52.91783       73.232759      28.039021     -19997.615      0              156.80945     -56.11834      -19700.242     -19644.123    
    249000   249000         2144.6741      783.60394      59.406797     -1304.2624     -19748.635      147.15379     -19911.485     -38.768093      98.583545     -19937.393      69.111193      77.9097        38.495856     -19997.208      0              188.75739     -98.364455     -19699.846     -19601.481    
    250000   250000         2174.6159      795.53338      60.311195      406.96496     -19774.498      149.39404     -19528.374     -34.89732       99.419473     -19934.382      43.38238       80.686513      32.892123     -19998.904      0              159.88412     -75.193376     -19700.297     -19625.104    
    251000   251000         2154.4505      788.78185      59.799346     -1867.7265     -19750.73       148.12616     -20046.535     -44.820924      97.004806     -19945.027      67.84653       83.501728      39.753189     -19997.211      0              194.2963      -97.040004     -19699.644     -19602.604    
    252000   252000         2047.9037      645.79825      48.959434     -1895.3287     -19772.769      121.27512     -20101.985     -43.195708      101.53885     -19939.889      64.58995       72.608152      28.119054     -19998.233      0              167.12079     -49.187828     -19700.681     -19651.494    
    253000   253000         2009.8233      749.74089      56.839562     -2085.8847     -19746.378      140.79462     -20101.368     -41.939616      97.762256     -19940.985      69.138114      80.447884      41.339285     -19996.807      0              194.60669     -94.326008     -19699.909     -19605.583    
    254000   254000         2190.9685      749.53266      56.823776     -342.46671     -19772.151      140.75551     -19712.795     -42.038991      98.564778     -19942.058      57.538758      76.524707      33.538635     -19998.583      0              169.90616     -69.156271     -19700.552     -19631.396    
    255000   255000         2185.1322      742.49298      56.290082     -862.3683      -19779.071      139.43352     -19844.609     -38.783807      98.559177     -19937.732      53.009707      82.004672      21.91349      -19997.507      0              158.66122     -61.268535     -19700.906     -19639.637    
    256000   256000         2189.1806      784.53354      59.477272     -646.4789      -19764.093      147.32836     -19770.424     -36.61585       100.75885     -19934.368      60.813484      78.326489      28.667575     -19998.511      0              170.27417     -82.994274     -19699.759     -19616.765    
    257000   257000         2191.0111      692.96905      52.53556      -1629.8646     -19751.465      130.13337     -20008.727     -32.76671       96.347621     -19934.157      78.473012      64.940293      36.057424     -19997.738      0              182.69168     -78.582407     -19699.914     -19621.332    
    258000   258000         2159.4456      622.67671      47.206538     -192.17352     -19747.842      116.9331      -19676.586     -32.675804      94.862703     -19935.23       50.591642      96.445492      37.522066     -19997.417      0              187.38786     -68.922281     -19699.831     -19630.909    
    259000   259000         2138.0079      694.13127      52.62367      -592.31433     -19770.412      130.35163     -19780.844     -41.476986      96.761802     -19942.395      54.954898      68.529078      44.849966     -19997.679      0              171.9829      -60.268992     -19700.329     -19640.06     
    260000   260000         2040.8226      723.79455      54.872511     -813.66343     -19758.448      135.92213     -19815.922     -35.545388      99.935479     -19932.769      53.425545      59.85514       56.253682     -19997.159      0              174.32086     -77.544431     -19700.071     -19622.526    
    261000   261000         2167.0069      673.22081      51.038401     -199.01139     -19782.603      126.42483     -19703.48      -33.490879      99.083894     -19931.136      48.387597      61.658232      34.671185     -19996.729      0              148.53351     -44.562302     -19700.74      -19656.178    
    262000   262000         2141.0919      711.25595      53.921932     -674.51335     -19747.825      133.56749     -19774.579     -35.471226      95.043896     -19938.966      72.568073      64.736422      50.390299     -19998.539      0              191.14136     -85.420076     -19699.677     -19614.257    
    263000   263000         2080.7669      903.05052      68.462314     -534.73376     -19780.018      169.58479     -19737.532     -43.111399      99.21586      -19942.209      40.937065      75.903833      41.673697     -19998.313      0              162.19067     -90.234622     -19700.668     -19610.433    
    264000   264000         2093.9941      683.61136      51.826132     -703.21629     -19785.136      128.37608     -19823.904     -40.43748       98.419151     -19942.252      51.924388      71.712221      31.139106     -20000.234      0              157.11633     -43.702186     -19700.462     -19656.76     
    265000   265000         2094.2619      586.4035       44.456583     -354.46459     -19780.642      110.12132     -19754.771     -39.954117      100.8277      -19937.557      54.617182      68.717447      31.062259     -19998.431      0              156.91571     -29.8107       -19700.331     -19670.52     
    266000   266000         2126.6289      769.25171      58.318722     -300.1449      -19770.498      144.45857     -19697.379     -41.968921      100.17889     -19941.318      45.881212      83.629297      37.605501     -19999.528      0              170.82059     -74.294626     -19700.334     -19626.039    
    267000   267000         2080.2133      649.02985      49.204429      542.80979     -19758.505      121.88199     -19507.605     -29.164023      96.379211     -19931.182      62.11566       63.132584      44.840272     -19998.397      0              172.67711     -63.605027     -19700.228     -19636.623    
    268000   268000         2009.8727      599.68907      45.463792     -696.08049     -19781.606      112.61623     -19834.438     -40.754232      98.120959     -19941.002      45.426286      70.063201      40.982266     -19998.368      0              159.39529     -31.518173     -19700.508     -19668.99     
    269000   269000         2190.7523      744.02137      56.405952     -1020.7965     -19772.218      139.72054     -19875.126     -40.393415      99.455543     -19938.917      40.207817      86.266037      36.917596     -19997.979      0              166.69816     -68.307748     -19700.806     -19632.498    
    270000   270000         2114.7645      665.47923      50.451494     -262.79749     -19778.014      124.97103     -19715.506     -39.068896      97.903094     -19938.549      55.917991      74.216596      27.885745     -19997.383      0              160.53523     -47.076834     -19700.12      -19653.043    
    271000   271000         2160.3368      698.15421      52.928659     -1038.5027     -19778.609      131.1071      -19894.339     -45.592454      100.47921     -19943.59       52.72858       78.312252      31.625603     -19998.476      0              164.98068     -53.187809     -19700.69      -19647.502    
    272000   272000         2154.8987      620.33613      47.029093     -541.73944     -19774.154      116.49356     -19786.424     -40.901786      99.797429     -19937.858      36.274269      87.700117      36.812078     -19996.754      0              163.70395     -42.743945     -19700.404     -19657.66     
    273000   273000         2085.3221      641.57038      48.638909     -406.86318     -19748.796      120.48116     -19725.02      -35.463151      97.690304     -19935.196      64.924444      76.203421      42.135363     -19997.424      0              186.40042     -71.709062     -19700.024     -19628.315    
    274000   274000         2093.8914      696.88165      52.832183     -1199.3236     -19749.251      130.86813     -19903.445     -46.830844      101.48711     -19944.035      70.175335      82.066503      39.070421     -19998.692      0              194.78418     -81.249405     -19699.632     -19618.383    
    275000   275000         2112.7175      594.72601      45.087531      480.54802     -19767.902      111.68421     -19541.998     -36.369281      95.947335     -19938.388      50.391533      77.885918      39.582996     -19997.966      0              170.48634     -44.163036     -19700.38      -19656.217    
    276000   276000         2074.8672      693.52507      52.577713     -880.51024     -19763.682      130.23779     -19842.728     -41.574889      96.432782     -19942.21       51.99908       74.461672      49.060186     -19997.068      0              178.52843     -66.886405     -19700.331     -19633.444    
    277000   277000         2118.3725      811.28024      61.505         61.774937     -19780.514      152.35115     -19613.48      -34.684424      96.754468     -19934.999      58.020762      54.152224      39.833016     -19997.069      0              154.48492     -72.304037     -19700.467     -19628.163    
    278000   278000         2072.1811      574.92657      43.586491     -212.63296     -19783.495      107.96606     -19726.068     -36.457703      98.87282      -19937.871      37.032602      77.144299      37.878294     -20000.286      0              154.3766      -24.703965     -19700.233     -19675.529    
    279000   279000         2110.7656      724.44242      54.921627      107.63435     -19756.378      136.04379     -19594.751     -38.436981      96.82236      -19940.454      63.436971      73.521564      44.098855     -19998.839      0              184.0762      -79.656122     -19699.99      -19620.334    
    280000   280000         2093.804       659.81419      50.022015     -495.92759     -19783.168      123.90719     -19777.135     -41.633588      96.811395     -19942.786      51.008704      82.354037      24.582037     -19997.964      0              159.61862     -41.126264     -19700.387     -19659.26     
    281000   281000         2108.1765      771.23092      58.46877      -561.55944     -19786.994      144.83025     -19775.638     -39.06559       100.30048     -19937.561      53.365676      68.999726      25.526303     -19998.796      0              150.56687     -58.365321     -19700.529     -19642.164    
    282000   282000         2127.114       703.56347      53.338747     -68.548227     -19758.256      132.12291     -19642.426     -37.439847      99.300477     -19935.742      45.813683      90.474536      38.070265     -19997.603      0              177.48568     -74.244118     -19700.377     -19626.133    
    283000   283000         2147.4634      707.40713      53.630144     -508.10905     -19795.191      132.84472     -19783.117     -39.639527      99.593576     -19940.042      40.346961      78.361323      24.401871     -19999.996      0              144.85059     -38.339019     -19700.686     -19662.347    
    284000   284000         2141.8294      796.56891      60.389701     -677.58759     -19760.279      149.5885      -19771.743     -41.724545      100.1089      -19940.03       60.641334      74.421094      41.447637     -19998.414      0              179.75076     -89.367        -19700.058     -19610.691    
    285000   285000         2107.3221      667.86824      50.632611     -818.23667     -19781.329      125.41967     -19850.392     -41.124743      99.289978     -19940.129      58.582718      67.340927      30.95769      -19998.294      0              158.80008     -44.923414     -19700.833     -19655.909    
    286000   286000         2128.72        812.43386      61.592459     -1378.4417     -19766.874      152.56779     -19941.941     -35.967259      100.11833     -19934.145      59.728722      65.290656      39.271848     -19998.296      0              167.27097     -86.298971     -19700.605     -19614.306    
    287000   287000         2074.6303      668.89822      50.710696     -226.62032     -19756.906      125.61309     -19685.157     -31.672454      97.675544     -19930.535      63.516688      69.729647      37.168703     -19996.538      0              173.62878     -68.714011     -19700.007     -19631.293    
    288000   288000         2090.4676      728.51522      55.230396     -1270.907      -19754.06       136.80863     -19919.327     -45.187505      97.925789     -19943.551      69.911051      76.845234      40.306807     -19996.289      0              189.49118     -82.775159     -19700.026     -19617.251    
    289000   289000         2115.6791      731.16714      55.431443      504.69746     -19767.74       137.30663     -19510.474     -31.113221      99.274035     -19928.647      49.367673      72.942851      35.594509     -19996.808      0              160.90715     -69.916175     -19700.349     -19630.433    
    290000   290000         2101.5177      700.52838      53.108649     -767.84225     -19762.283      131.55295     -19813.235     -39.533374      99.156616     -19937.945      62.058743      78.392558      33.53041      -19997.569      0              175.66226     -68.667205     -19699.397     -19630.73     
    291000   291000         2133.4066      601.35847      45.590354     -887.73818     -19774.115      112.92973     -19872.188     -41.513686      98.393903     -19939.491      50.115366      74.258605      38.074375     -19996.371      0              165.37564     -38.793156     -19699.979     -19661.185    
    292000   292000         2148.4659      753.12158      57.09586      -532.09715     -19758.938      141.42948     -19743.981     -37.977805      97.631176     -19938.458      58.569865      79.783183      38.28705      -19998.111      0              179.51927     -82.476993     -19699.986     -19617.509    
    293000   293000         2154.1904      785.36235      59.540106      76.96705      -19784.091      147.48401     -19618.313     -31.830113      97.509683     -19932.079      35.9285        73.901245      35.556756     -19997.758      0              147.98813     -63.974971     -19700.582     -19636.607    
    294000   294000         2155.3755      735.29288      55.744226     -150.83661     -19775.367      138.08141     -19673.137     -35.779943      101.91781     -19931.977      55.229837      70.912045      28.583009     -19998.115      0              156.61019     -62.805755     -19700.091     -19637.285    
    295000   295000         2144.6451      760.58685      57.661819     -283.13106     -19750.434      142.83139     -19674.899     -27.67042       99.564282     -19927.448      60.476206      74.210057      39.474543     -19999.342      0              177.01402     -92.359142     -19699.962     -19607.602    
    296000   296000         2142.0749      708.65127      53.724464      188.81789     -19772.715      133.07835     -19594.757     -39.606639      100.93862     -19938.181      56.463332      65.530942      41.375438     -19999.513      0              165.46614     -60.33193      -19699.969     -19639.637    
    297000   297000         2079.3026      701.19285      53.159025      570.11644     -19768.852      131.67773     -19501.666     -33.594441      99.011467     -19932.176      42.179216      85.447218      33.27574      -19997.593      0              163.32447     -62.746819     -19699.921     -19637.174    
    298000   298000         2106.7257      722.19051      54.750905     -447.29807     -19766.292      135.6209      -19736.987     -41.525179      100.58512     -19938.865      53.208435      76.833018      39.332314     -19997.925      0              172.57296     -69.235372     -19699.906     -19630.671    
    299000   299000         2092.861       663.14225      50.274323     -260.14331     -19752.578      124.53217     -19689.878     -44.669826      99.185089     -19943.948      57.475692      85.403492      45.033412     -19998.463      0              191.36971     -71.412808     -19699.459     -19628.046    
    300000   300000         2057.6711      774.13626      58.689031     -761.31717     -19751.423      145.37585     -19787.001     -34.257356      96.480037     -19934.896      67.597354      76.036691      37.129236     -19997.119      0              183.47366     -93.505543     -19699.552     -19606.047    
    301000   301000         2155.9607      717.40947      54.388444     -1311.8872     -19760.408      134.72307     -19937.501     -37.816801      97.413195     -19939.642      73.278546      71.650688      32.335715     -19999.239      0              179.23429     -73.52466      -19699.21      -19625.685    
    302000   302000         2153.9877      676.26447      51.269148     -1239.0359     -19795.577      126.9964      -19963.081     -41.429253      98.717819     -19941.234      56.983773      59.851948      26.533804     -19998.522      0              145.65701     -31.613473     -19700.194     -19668.58     
    303000   303000         2146.8354      738.81337      56.011122     -904.39103     -19764.84       138.74253     -19841.058     -34.405573      95.762135     -19936.185      68.884337      61.609898      37.630537     -19997.541      0              171.34509     -73.456567     -19699.554     -19626.097    
    304000   304000         2132.274       784.65711      59.48664      -640.78406     -19756.933      147.35157     -19761.887     -36.337623      97.156474     -19936.002      68.962741      72.615267      35.42364      -19996.821      0              179.06914     -89.408757     -19698.99      -19609.582    
    305000   305000         2064.1076      641.32431      48.620254      76.662159     -19746.567      120.43495     -19607.91      -39.594609      99.2937       -19938.493      57.266736      74.212793      55.965632     -19998.192      0              191.92601     -73.210413     -19699.342     -19626.132    
    306000   306000         2054.4564      765.18698      58.010565     -1185.3982     -19770.664      143.69525     -19908.72      -41.632774      97.991429     -19939.955      63.312563      71.818645      32.414133     -19996.313      0              169.29105     -72.354432     -19699.323     -19626.968    
    307000   307000         2029.0486      883.17689      66.955649      316.53162     -19783.816      165.8527      -19542.728     -41.132421      98.870992     -19940.984      36.705948      77.83326       40.647124     -19998.722      0              157.16775     -82.206905     -19700.17      -19617.963    
    308000   308000         2109.3195      641.84414      48.659664     -1138.7165     -19788.774      120.53257     -19938.898     -36.51205       99.108152     -19934.978      42.621715      59.307203      41.047946     -19997.574      0              146.20356     -32.18855      -19700.43      -19668.242    
    309000   309000         2102.9795      762.13736      57.779367     -435.3639      -19788.086      143.12256     -19748.443     -41.030144      97.536858     -19941.369      47.451815      66.008303      36.53891      -19997.876      0              153.28347     -54.912746     -19699.876     -19644.963    
    310000   310000         2136.1694      682.73069      51.759366      152.20378     -19752.158      128.2107      -19587.771     -30.073713      92.700185     -19935.595      80.664412      63.043002      36.354212     -19998.222      0              183.43764     -75.52247      -19699.47      -19623.947    
    311000   311000         2056.4762      574.01957      43.517729     -520.47872     -19767.55       107.79573     -19783.465     -36.814823      96.114403     -19937.946      48.143337      81.212853      38.384869     -19997.246      0              170.39573     -40.257828     -19700.012     -19659.755    
    312000   312000         2048.7596      794.53376      60.235411     -1518.2848     -19764.358      149.20631     -19976.025     -36.570477      98.72178      -19936.402      55.490357      82.993393      31.535991     -19998.554      0              172.04459     -84.594124     -19699.746     -19615.152    
    313000   313000         2086.6996      776.74248      58.886614     -1.187567      -19784.823      145.86527     -19639.24      -36.915915      97.947209     -19937.069      51.807571      64.313424      33.812751     -19998.1        0              152.24589     -61.270073     -19700.228     -19638.958    
    314000   314000         2136.4311      719.31793      54.533128     -571.25175     -19770.338      135.08146     -19771.035     -38.798556      98.395589     -19939.529      67.535822      68.7306        30.300688     -19999.126      0              169.19104     -65.009802     -19700.266     -19635.256    
    315000   315000         2135.6898      673.10541      51.029652     -244.37009     -19764.904      126.40316     -19696.584     -37.026865      98.31254      -19935.993      56.964976      63.498164      46.815257     -19997.278      0              171.08875     -61.288503     -19699.789     -19638.501    
    316000   316000         2168.8477      689.54777      52.276185     -48.895809     -19766.746      129.49089     -19648.877     -33.224207      101.5894      -19929.035      45.213367      73.684696      40.528709     -19997.401      0              162.28904     -62.793957     -19700.049     -19637.255    
    317000   317000         2166.3417      653.2099       49.521328     -373.13221     -19779.058      122.66696     -19745.079     -38.229862      97.976328     -19936.839      60.428406      71.544408      24.148182     -19996.586      0              157.78106     -43.185422     -19699.576     -19656.391    
    318000   318000         2135.6272      678.60259      51.446406     -850.9198      -19757.915      127.43548     -19832.73      -33.689871      97.623664     -19933.967      57.610496      77.275549      37.674259     -19997.9        0              176.0518      -69.25253      -19699.732     -19630.479    
    319000   319000         2126.9589      602.42651      45.671324      368.76216     -19768.068      113.1303      -19567.289     -32.661866      95.389025     -19934.498      47.973006      66.909494      48.205009     -19997.225      0              166.42977     -45.00303      -19699.941     -19654.938    
    320000   320000         2168.3994      667.84284      50.630685     -551.21518     -19765.096      125.4149      -19770.696     -30.990185      99.423472     -19930.675      56.434596      86.644709      20.619262     -19999.109      0              165.57988     -60.005032     -19699.686     -19639.681    
    321000   321000         2153.3857      715.71528      54.260003     -927.65781     -19744.055      134.40491     -19830.141     -34.356403      96.847859     -19935.301      63.836926      83.596025      40.408311     -19997.793      0              191.24618     -89.715278     -19699.365     -19609.65     
    322000   322000         2222.4553      686.15844      52.019232      20.452694     -19766.42       128.8544      -19632.704     -33.291162      93.766187     -19937.378      50.319078      78.550346      38.499005     -19997.853      0              170.95833     -62.210873     -19699.776     -19637.565    
    323000   323000         2159.5359      734.50991      55.684867     -788.76562     -19759.607      137.93438     -19809.151     -38.258383      97.607148     -19937.972      48.626389      78.367712      47.696981     -19997.32       0              178.36448     -77.617317     -19699.29      -19621.673    
    324000   324000         2175.1093      731.30103      55.441595      30.198869     -19748.821      137.33178     -19604.311     -37.417588      100.94167     -19934.318      57.506671      74.821142      49.18587      -19997.842      0              185.4975      -87.814794     -19699.304     -19611.489    
    325000   325000         2167.9939      636.62944      48.264326     -681.4617      -19748.509      119.5533      -19790.929     -35.245093      97.851167     -19935.369      70.587681      65.81831       47.298725     -19997.975      0              186.86043     -70.071493     -19699.027     -19628.955    
    326000   326000         2183.5385      761.69916      57.746146      668.34886     -19753.091      143.04027     -19451.194     -29.543376      94.429454     -19931.807      66.795884      76.930971      32.043422     -19996.693      0              178.71645     -88.843608     -19698.894     -19610.051    
    327000   327000         2109.2318      637.70287      48.345705     -1650.9117     -19747.065      119.75488     -20019.708     -33.840371      98.445027     -19932.695      55.727438      77.03816       49.048884     -19997.3        0              185.6303      -71.915328     -19699.226     -19627.31     
    328000   328000         2119.928       693.43422      52.570825     -713.0965      -19767.113      130.22073     -19806.385     -41.056817      96.967121     -19941.364      45.763617      83.431366      42.261496     -19997.275      0              174.25111     -63.276151     -19700.169     -19636.893    
    329000   329000         2178.2017      773.91754      58.672449      272.9858      -19768.972      145.33477     -19558.752     -33.374399      98.884518     -19931.91       43.498551      67.401938      47.855378     -19997.42       0              162.93771     -75.9685       -19699.606     -19623.637    
    330000   330000         2206.3098      744.81827      56.466367     -403.60172     -19772.456      139.87019     -19728.516     -34.219208      98.538313     -19932.2        58.684542      62.897161      35.32229      -19996.519      0              159.74311     -67.370791     -19699.957     -19632.586    
    331000   331000         2127.7311      653.28576      49.527079     -122.48551     -19765.378      122.68121     -19671.809     -33.495685      97.063267     -19934.622      49.847357      71.737198      43.798305     -19998.189      0              169.24439     -57.294957     -19699.991     -19642.696    
    332000   332000         2167.0312      654.72947      49.63653      -1311.8681     -19763.851      122.95232     -19952.71      -36.691174      98.900964     -19935.409      53.585294      65.933913      48.175665     -19997.619      0              171.55852     -58.677457     -19699.576     -19640.898    
    333000   333000         2083.3886      779.92349      59.127773     -156.03101     -19797.068      146.46264     -19687.692     -38.791233      97.779996     -19938.669      40.567202      63.182162      34.833422     -19997.657      0              141.60039     -49.768846     -19700.374     -19650.606    
    334000   334000         2059.4984      727.45308      55.149872     -677.15153     -19761.033      136.60917     -19785.372     -38.464194      93.403816     -19942.135      68.974239      60.271983      47.139629     -19997.075      0              181.10232     -75.758833     -19700.182     -19624.424    
    335000   335000         2101.3753      823.18198      62.407298     -86.865921     -19771.721      154.58619     -19637.782     -35.795353      94.74218      -19937.12       60.239541      73.233729      29.99386      -19996.067      0              165.39857     -82.366352     -19699.502     -19617.135    
    336000   336000         2095.9557      658.60283      49.930178     -47.436957     -19771.821      123.67971     -19659.416     -35.591984      97.702119     -19936.442      54.245066      59.607643      46.961012     -19998.552      0              164.62086     -52.046736     -19700.188     -19648.141    
    337000   337000         2097.5502      819.25167      62.109332     -589.90042     -19767.335      153.84812     -19753.697     -39.18547       98.805293     -19937.656      50.680318      76.174893      39.747938     -19997.276      0              170.32134     -87.258392     -19700.745     -19613.487    
    338000   338000         2076.1355      575.39803      43.622233     -470.33409     -19769.957      108.05459     -19773.694     -36.026861      96.553886     -19936.465      59.3199        66.090166      39.010163     -19996.992      0              166.50804     -38.363218     -19700.265     -19661.902    
    339000   339000         2116.8621      705.01068      53.448463     -217.23513     -19756.985      132.39468     -19676.223     -30.850912      95.584598     -19933.271      50.531514      82.895749      39.94179      -19998.004      0              176.28604     -75.035505     -19699.625     -19624.59     
    340000   340000         2129.2852      719.8756       54.575407     -1188.0375     -19754.148      135.18618     -19901.341     -35.92012       96.793098     -19937.011      82.030901      62.839175      35.716922     -19997.884      0              182.86302     -80.553548     -19699.516     -19618.962    
    341000   341000         2137.0711      765.08265      58.002655     -183.22735     -19788.45       143.67566     -19688.324     -33.757848      96.93549      -19934.512      45.256603      75.267879      24.011576     -19997.689      0              146.06221     -55.973176     -19700.747     -19644.774    
    342000   342000         2125.5442      685.61075      51.97771      -37.871867     -19757.346      128.75155     -19637.596     -34.235793      98.753192     -19934.168      56.682543      78.156035      38.774765     -19998.685      0              176.82153     -71.328668     -19699.923     -19628.595    
    343000   343000         2136.4099      710.91039      53.895734     -770.35277     -19759.846      133.5026      -19809.445     -35.6237        98.09074      -19934.887      47.467377      80.392103      43.336003     -19997.354      0              175.04154     -73.665748     -19700.009     -19626.343    
    344000   344000         2121.9537      734.05794      55.650602     -189.12772     -19736.007      137.8495      -19643.11      -26.456974      96.594071     -19926.995      64.80268       77.31291       45.617613     -19997.132      0              190.98774     -100.43507     -19698.592     -19598.157    
    345000   345000         2105.4531      698.96869      52.990406      67.337117     -19775.966      131.26005     -19628.701     -29.206251      97.341301     -19929.795      35.614336      72.702574      42.310644     -19997.93       0              153.8284      -55.576437     -19700.283     -19644.706    
    346000   346000         2136.0617      708.43444      53.708026     -508.88484     -19756.176      133.03764     -19744.093     -34.331999      97.327273     -19934.597      54.913754      82.210534      37.59031      -19997.592      0              178.4205      -76.42308      -19699.562     -19623.138    
    347000   347000         2135.1996      741.83396      56.24012      -979.44936     -19753.812      139.30977     -19847.303     -32.654087      98.769284     -19931.217      60.536582      73.164438      40.678899     -19997.332      0              177.40506     -85.110071     -19699.612     -19614.502    
    348000   348000         2149.17        569.95522      43.209601     -429.21923     -19778.165      107.03248     -19773.152     -43.60997       97.569549     -19943.319      70.883506      58.636581      33.356584     -19997.279      0              165.15418     -28.635315     -19699.768     -19671.133    
    349000   349000         2148.1452      721.25288      54.679821      438.06961     -19745.578      135.44482     -19506.011     -25.733127      95.248065     -19926.294      61.852421      74.931148      40.603527     -19995.809      0              180.71522     -88.789979     -19698.924     -19610.134    
    350000   350000         2194.3178      607.3745       46.046442     -457.5304      -19758.786      114.05949     -19753.474     -37.696242      97.660758     -19935.52       57.841756      77.711252      38.85627      -19995.484      0              176.73402     -54.934924     -19699.661     -19644.726    
    351000   351000         2142.2636      738.89179      56.017067     -46.34952      -19774.864      138.75725     -19647.124     -32.188615      98.856401     -19930.934      41.939203      74.423445      36.592114     -19997.602      0              156.0698      -64.147378     -19700.254     -19636.107    
    352000   352000         2132.8409      713.65999      54.104187     -535.28026     -19796.136      134.01895     -19789.345     -36.906233      97.774787     -19935.625      45.808741      62.153146      29.250615     -19996.493      0              139.48852     -37.996323     -19700.114     -19662.117    
    353000   353000         2127.2518      797.17041      60.435301     -1775.4375     -19761.27       149.70145     -20033.564     -43.882649      97.12686      -19944.739      76.829831      74.172022      30.496144     -19997.983      0              183.46857     -87.857594     -19699.426     -19611.569    
    354000   354000         2112.9924      733.16032      55.582551      55.166695     -19776.817      137.68093     -19626.024     -37.200113      99.262262     -19935.338      46.56968       69.133908      39.647982     -19997.4        0              158.52132     -60.656184     -19699.792     -19639.136    
    355000   355000         2038.5287      757.06555      57.394861      529.70073     -19771.848      142.17012     -19503.776     -33.677091      99.755574     -19930.893      53.63971       77.63651       26.484321     -19996.972      0              159.04539     -70.827893     -19700.506     -19629.678    
    356000   356000         2148.512       768.42149      58.255781     -364.3137      -19760.963      144.30266     -19703.253     -36.473872      99.468128     -19933.984      58.473248      74.864894      36.707848     -19996.979      0              173.02101     -83.139046     -19699.8       -19616.661    
    357000   357000         2143.9622      724.95093      54.960179     -75.595121     -19764.631      136.13928     -19646.46      -34.945081      98.062456     -19935.602      61.246754      75.123218      32.214577     -19998.72       0              170.9713      -70.860133     -19699.352     -19628.492    
    358000   358000         2144.1839      672.31967      50.970083     -68.18046      -19764.594      126.2556      -19654.544     -34.523511      100.94261     -19932.469      49.325241      72.58873       42.035443     -19998.888      0              167.87479     -61.57495      -19699.913     -19638.338    
    359000   359000         2093.0821      633.28585      48.01084      -372.13794     -19774.203      118.9254      -19743.729     -40.828821      97.967388     -19940.533      47.368074      78.199722      37.586063     -19997.672      0              166.33011     -44.496112     -19699.774     -19655.277    
    360000   360000         2153.5586      769.71785      58.354061     -194.65614     -19743.712      144.54611     -19645.432     -36.050516      99.576434     -19934.367      49.271404      88.190587      48.407871     -19997.893      0              190.65522     -100.71312     -19699.879     -19599.165    
    361000   361000         2142.1636      713.56848      54.097249     -488.44666     -19784.253      134.00176     -19766.348     -38.491103      97.408278     -19940.038      61.611598      55.072183      36.038189     -19998.956      0              155.78503     -49.917582     -19700.169     -19650.252    
    362000   362000         2182.4701      619.90051      46.996068      156.79539     -19768.596      116.41176     -19614.916     -38.782853      100.18236     -19937.187      50.025845      75.264463      39.666711     -19998.586      0              168.59087     -47.289817     -19699.474     -19652.184    
    363000   363000         2126.5831      578.60341      43.865241      295.86441     -19778.002      108.65653     -19599.023     -30.285121      99.183872     -19929.716      43.78635       68.198735      37.386187     -19998.615      0              151.71368     -31.253515     -19700.599     -19669.346    
    364000   364000         2114.2207      693.97358      52.611716     -607.99105     -19774.373      130.32202     -19788.561     -34.772209      97.654207     -19934.796      64.036521      57.833258      35.700846     -19997.678      0              160.4234      -55.764558     -19699.815     -19644.051    
    365000   365000         2140.3236      647.56993      49.093749     -477.76083     -19791.592      121.60783     -19783.541     -38.508044      97.037265     -19938.391      41.839756      67.72166       34.54531      -19996.92       0              146.79912     -30.349387     -19700.333     -19669.984    
    366000   366000         2083.2482      659.79519      50.020574     -1468.6173     -19772.888      123.90362     -19998.053     -38.099355      97.76068      -19937.865      61.197799      72.608797      28.826463     -19997.526      0              164.97656     -50.24656      -19699.231     -19648.985    
    367000   367000         2096.7787      658.47011      49.920116      40.808633     -19794.205      123.65478     -19660.851     -35.582611      96.634338     -19936.001      43.567036      78.98245       17.734924     -19997.053      0              141.79628     -29.629524     -19700.18      -19670.55     
    368000   368000         2133.6332      744.56789      56.447385     -667.51288     -19762.751      139.82317     -19781.586     -33.319531      95.894761     -19933.366      54.313642      71.243412      41.200438     -19995.941      0              170.61494     -76.490153     -19699.418     -19622.928    
    369000   369000         2080.5365      819.55868      62.132608     -1152.7448     -19750.118      153.90577     -19870.203     -37.53732       98.631007     -19937.187      63.507964      74.225985      45.237028     -19998.281      0              187.06904     -103.14179     -19699.354     -19596.212    
    370000   370000         2117.9057      715.2          54.220939     -860.11023     -19774.485      134.30815     -19844.612     -34.469921      97.521047     -19934.217      56.202134      74.878425      26.314535     -19997.268      0              159.73257     -59.438956     -19699.615     -19640.176    
    371000   371000         2103.6294      705.15855      53.459673      35.95402      -19769.811      132.42245     -19628.842     -34.559657      99.385997     -19932.27       51.611072      63.969633      43.404905     -19997.097      0              162.45999     -62.438815     -19699.827     -19637.388    
    372000   372000         2164.128       720.60267      54.630527     -259.77751     -19761.344      135.32272     -19687.767     -37.973938      95.255392     -19940.84       50.466161      68.492386      56.034735     -19998.121      0              179.49531     -73.928703     -19699.95      -19626.022    
    373000   373000         2128.341       632.36531      47.941052     -871.68268     -19755.269      118.75253     -19843.703     -34.015056      95.988079     -19935.018      48.331009      87.475027      39.868364     -19996.991      0              179.74894     -63.190324     -19699.707     -19636.517    
    374000   374000         2118.1104      675.44229      51.206816     -1123.4469     -19774.408      126.842       -19914.593     -36.573076      97.004144     -19934.969      49.968926      75.932904      31.575604     -19995.4        0              160.56063     -52.374065     -19699.94      -19647.566    
    375000   375000         2145.378       687.59799      52.128367      17.454796     -19749.333      129.12474     -19616.059     -27.348276      96.036246     -19927.898      54.673475      71.963838      48.075248     -19996.586      0              178.56501     -79.344893     -19699.553     -19620.208    
    376000   376000         2196.1867      846.98426      64.211803      39.670468     -19785.117      159.05605     -19616.632     -38.363267      96.911969     -19938.877      42.506399      71.672796      37.16587      -19997.426      0              153.76        -74.169178     -19700.23      -19626.061    
    377000   377000         2125.945       608.42676      46.126216     -219.08933     -19758.779      114.25709     -19696.596     -36.113801      96.488093     -19937.896      60.559135      75.362196      40.640429     -19998.27       0              179.11681     -55.092586     -19699.614     -19644.522    
    378000   378000         2149.5623      673.28837      51.043522      635.72376     -19757.987      126.43752     -19480.447     -32.522992      100.90834     -19931.414      53.70531       80.418405      35.58157      -19999.799      0              173.42654     -68.000897     -19699.55      -19631.549    
    379000   379000         2164.2025      595.60383      45.154081      586.62797     -19772.641      111.84906     -19521.359     -36.379331      96.968703     -19937.806      42.022367      79.618211      39.867752     -19998.396      0              165.16523     -38.825729     -19699.618     -19660.792    
    380000   380000         2177.3194      726.28646      55.061429     -322.4802      -19774.147      136.39009     -19714.406     -32.49793       100.86598     -19929.093      48.417568      72.001197      31.681378     -19997.461      0              154.94564     -62.263577     -19700.021     -19637.757    
    381000   381000         2222.942       674.84607      51.161615     -190.00309     -19755.017      126.73004     -19673.448     -35.201894      94.152108     -19938.454      86.572732      64.84171       30.011106     -19997.404      0              183.4362      -70.796018     -19699.083     -19628.287    
    382000   382000         2198.1246      628.45783      47.644818      345.04838     -19766.284      118.01875     -19566.252     -25.830936      98.786613     -19924.347      52.909045      80.96929       22.41174      -19997.303      0              158.06388     -51.264813     -19699.53      -19648.265    
    383000   383000         2162.8804      743.41812      56.360219      431.84504     -19734.437      139.60726     -19492.187     -33.751163      101.0777      -19928.979      76.277238      86.422584      29.402369     -19996.306      0              194.54191     -104.08142     -19698.911     -19594.83     
    384000   384000         2152.4574      668.70803      50.696276      613.08762     -19781.893      125.57737     -19510.594     -33.038985      98.504215     -19932.962      39.719308      81.776772      27.649399     -19998.427      0              151.06877     -43.831548     -19700.147     -19656.316    
    385000   385000         2165.1566      660.60103      50.081666     -944.15449     -19768.35       124.05495     -19868.707     -35.880905      98.674776     -19934.582      69.402301      76.746052      18.936561     -19997.375      0              166.23116     -55.321976     -19699.617     -19644.295    
    386000   386000         2132.4945      735.89365      55.789772      51.193088     -19751.613      138.19423     -19601.251     -38.234079      96.414568     -19939.61       68.222017      77.04493       39.548446     -19997.79       0              187.99638     -85.645519     -19699.065     -19613.419    
    387000   387000         2121.4557      790.84261      59.955577     -1189.7801     -19773.864      148.51315     -19908.144     -38.677743      99.289231     -19936.748      63.762094      71.404047      25.675318     -19997.36       0              162.88455     -74.273817     -19699.624     -19625.351    
    388000   388000         2154.7429      621.2939       47.101703     -97.364547     -19777.928      116.67342     -19684.396     -35.356332      96.526742     -19935.521      43.976403      79.739226      31.969182     -19996.692      0              157.59358     -38.692378     -19699.947     -19661.254    
    389000   389000         2147.7283      609.3577       46.196793      372.27127     -19748.34       114.43191     -19545.425     -30.648727      98.385018     -19931.823      62.195681      85.195087      34.159795     -19999.559      0              183.48297     -65.515779     -19699.424     -19633.908    
    390000   390000         2126.739       840.31265      63.706014     -774.76045     -19763.313      157.80318     -19789.659     -40.256897      99.924833     -19937.227      51.602996      89.052264      30.907623     -19996.895      0              173.91347     -94.839258     -19700.349     -19605.51     
    391000   391000         2055.479       698.44158      52.950445      425.18572     -19768.943      131.16107     -19536.721     -33.468563      99.814165     -19929.869      46.725072      88.77302       23.643005     -19996.214      0              160.92631     -62.278031     -19700.06      -19637.781    
    392000   392000         2121.01        938.05484      71.116071      274.33624     -19773.163      176.15829     -19531.799     -34.458903      98.514386     -19933.76       70.09739       64.697762      23.542011     -19997.815      0              160.59708     -102.99707     -19700.001     -19597.004    
    393000   393000         2141.809       741.88608      56.244071     -884.96299     -19755.638      139.31955     -19826.661     -39.311032      98.116279     -19937.857      69.313575      84.07195       27.165299     -19996.662      0              182.21867     -82.937935     -19699.257     -19616.319    
    394000   394000         2140.4473      616.9175       46.769919     -885.2819      -19777.144      115.85158     -19871.711     -39.355964      95.766879     -19939.254      68.798293      63.799292      27.777451     -19995.665      0              162.11014     -38.63473      -19699.927     -19661.293    
    395000   395000         2138.6545      745.29124      56.502224     -1140.3717     -19761.568      139.95901     -19892.659     -42.579573      98.62226      -19940.07       59.557882      83.701331      32.986436     -19996.113      0              178.50206     -77.746663     -19699.356     -19621.609    
    396000   396000         2088.5631      755.39312      57.26807      -67.41066      -19782.33       141.85605     -19656.497     -33.679404      95.904689     -19934.221      51.804859      65.898367      31.854443     -19996.446      0              151.89077     -59.587413     -19700.061     -19640.474    
    397000   397000         2105.9129      720.81951      54.646966     -564.16335     -19772.889      135.36344     -19771.619     -33.389739      99.612664     -19930.048      48.188195      65.987136      40.012646     -19996.271      0              157.15953     -62.435298     -19699.961     -19637.526    
    398000   398000         2064.9988      828.99925      62.848319      932.41088     -19787.049      155.67863     -19409.75      -36.304023      99.768532     -19934.888      45.640415      70.208168      29.444415     -19998.352      0              147.83893     -68.461263     -19699.831     -19631.37     
    399000   399000         2207.1288      839.48608      63.643349      851.51247     -19750.373      157.64796     -19390.333     -24.192379      98.113198     -19923.964      57.157801      71.115562      42.439091     -19997.885      0              173.59158     -106.8287      -19699.554     -19592.725    
    400000   400000         2152.5912      687.31618      52.107003     -709.74962     -19763.22       129.07182     -19802.845     -35.829604      95.062559     -19936.016      58.750272      78.463025      33.513186     -19995.249      0              172.79598     -65.766342     -19699.914     -19634.148    
    401000   401000         2164.7604      709.318        53.775011      355.61932     -19770.685      133.20356     -19552.956     -31.139416      98.540474     -19928.754      52.998707      70.764386      32.002282     -19996.155      0              158.06938     -62.370171     -19699.851     -19637.481    
    402000   402000         2138.3482      669.96256      50.791385     -442.15616     -19760.733      125.81296     -19740.014     -40.595053      98.406129     -19938.491      54.993696      93.111367      27.821926     -19996.302      0              177.75783     -65.135749     -19700.056     -19634.92     
    403000   403000         2121.0773      845.26151      64.081198     -648.06775     -19786.851      158.73253     -19782.155     -46.070291      97.682073     -19945.824      64.953704      66.41845       25.493418     -19997.436      0              158.97296     -71.846054     -19699.965     -19628.119    
    404000   404000         2185.9428      771.31394      58.475064     -683.12947     -19764.845      144.84584     -19782.369     -37.851719      96.183359     -19939.613      55.424365      79.655573      36.990987     -19997.945      0              174.76827     -80.002051     -19700.001     -19619.999    
    405000   405000         2184.5225      573.15436      43.452136     -486.11243     -19768.194      107.63325     -19776.102     -31.65058       96.643348     -19933.094      60.385051      64.070068      37.150677     -19998.087      0              164.90029     -40.015633     -19700.576     -19660.561    
    406000   406000         2206.73        713.06803      54.059309      203.81131     -19779.895      133.90778     -19597.544     -30.130662      97.56979      -19931.857      64.338185      65.925623      20.157742     -19999.296      0              151.96189     -53.784392     -19699.771     -19645.987    
    407000   407000         2212.4745      809.64612      61.381114      302.01691     -19780.183      152.04428     -19556.353     -37.672118      98.55592      -19937.42       50.061619      76.891435      28.475301     -19998.304      0              157.23728     -71.9682       -19700.107     -19628.138    
    408000   408000         2143.3373      726.56595      55.082617     -643.64594     -19760.809      136.44257     -19777.351     -37.518936      101.13795     -19934.413      59.197537      83.242339      28.928963     -19998.032      0              173.60438     -75.135113     -19699.501     -19624.366    
    409000   409000         2141.7334      658.21311      49.900633     -709.09327     -19766.854      123.60652     -19811.789     -37.033502      96.749911     -19936.392      61.986829      74.645428      30.706784     -19996.108      0              169.53735     -56.557331     -19699.805     -19643.248    
    410000   410000         2093.0489      591.46817      44.840547     -1001.872      -19762.08       111.07242     -19889.138     -39.894381      96.166608     -19940.766      63.076358      75.59661       37.395597     -19997.038      0              178.68601     -48.916457     -19699.924     -19651.007    
    411000   411000         2088.9813      656.29617      49.755306     -33.252213     -19747.093      123.24654     -19631.75      -32.195453      99.517616     -19929.852      47.81424       82.257074      48.840435     -19997.174      0              182.75939     -75.598294     -19699.444     -19623.846    
    412000   412000         2063.6483      808.95633      61.328819      281.12247     -19733.411      151.91474     -19514.677     -25.020995      99.587131     -19922.481      47.404537      79.826505      56.769034     -19997.048      0              189.07084     -118.1306      -19699.626     -19581.496    
    413000   413000         2105.0374      592.09056      44.887732     -749.82287     -19766.066      111.1893      -19833.099     -38.663973      98.738234     -19938.38       54.016871      70.862352      44.20349      -19998.454      0              172.31369     -44.819156     -19699.696     -19654.877    
    414000   414000         2140.6919      713.105        54.062112     -561.95035     -19758.899      133.91473     -19758.552     -41.008622      95.764807     -19942.62       64.512275      74.447078      41.945774     -19997.377      0              183.72129     -74.566065     -19699.551     -19624.984    
    415000   415000         2084.9143      693.12764      52.547583     -313.00895     -19796.891      130.16316     -19741.125     -42.216925      95.452071     -19944.943      43.582614      78.147655      24.375257     -19998.178      0              148.052       -33.95449      -19700.682     -19666.728    
    416000   416000         2100.3972      697.53132      52.881436      583.08094     -19755.217      130.99013     -19485.637     -34.361603      97.123073     -19934.463      52.242882      85.078896      38.42968      -19997.225      0              179.24588     -75.313127     -19699.54      -19624.227    
    417000   417000         2108.1219      741.77266      56.235472     -974.74321     -19776.236      139.29825     -19868.62      -35.258825      96.285595     -19936.38       48.523014      76.460472      31.956899     -19997.407      0              160.14416     -63.18775      -19700.126     -19636.938    
    418000   418000         2165.2366      715.15695      54.217675     -587.70895     -19768.826      134.30006     -19774.215     -43.052776      99.047023     -19942.168      50.645395      90.063455      29.846828     -19998.163      0              173.34269     -65.617799     -19700.143     -19634.526    
    419000   419000         2104.0187      684.34608      51.881833      192.56137     -19787.36       128.51406     -19613.077     -33.186812      96.655983     -19934.193      41.8266        71.869025      30.358054     -19997.662      0              146.83313     -41.729185     -19700.575     -19658.846    
    420000   420000         2123.9839      723.28135      54.833604     -1383.5598     -19759.546      135.82575     -19952.572     -36.1174        98.865867     -19933.819      61.441108      73.588051      35.88208      -19996.567      0              174.27268     -75.714167     -19699.435     -19623.721    
    421000   421000         2150.0942      814.40808      61.742129     -418.95868     -19763.717      152.93853     -19710.358     -36.075184      95.033459     -19939.809      47.318517      65.958021      58.282778     -19998.768      0              176.09267     -88.95077      -19699.729     -19610.778    
    422000   422000         2042.9818      639.75381      48.501192     -1430.4638     -19762.861      120.14003     -19982.722     -38.10945       97.923948     -19937.298      65.796117      75.217851      30.843959     -19997.113      0              174.43711     -57.070016     -19699.791     -19642.721    
    423000   423000         2065.9595      554.19356      42.014675     -892.31887     -19778.87       104.07258     -19886.888     -45.154121      98.011823     -19945.314      67.715539      67.802337      28.824438     -19998.172      0              166.44482     -25.468614     -19700.266     -19674.797    
    424000   424000         2120.8352      737.12769      55.883327     -336.71801     -19768.695      138.42597     -19710.302     -36.604379      100.24986     -19936.654      48.40863       82.400765      34.298963     -20000.299      0              167.95901     -69.85387      -19700.122     -19630.269    
    425000   425000         2127.7019      756.36964      57.342103     -826.53987     -19776.268      142.03944     -19830.685     -42.216824      97.663742     -19942.81       46.487034      81.959302      34.955817     -19998.257      0              166.54204     -65.328601     -19699.557     -19634.229    
    426000   426000         2104.5453      636.67132      48.267501      394.34982     -19767.276      119.56116     -19553.984     -30.526636      98.322811     -19930.297      43.954939      78.506364      38.038129     -19998.093      0              163.02047     -51.965062     -19699.68      -19647.715    
    427000   427000         2109.9521      818.82688      62.077128     -199.6381      -19742.48       153.76835     -19636.163     -29.322203      100.74321     -19926.586      55.203533      83.103087      42.288911     -19998.007      0              184.10579     -110.61123     -19699.323     -19588.712    
    428000   428000         2123.5962      635.65502      48.190453     -57.693307     -19769.209      119.37031     -19663.552     -39.343789      96.688382     -19942.352      61.752803      82.660143      27.089499     -19999.697      0              173.14273     -49.812389     -19699.652     -19649.839    
    429000   429000         2163.8458      746.53506      56.596521     -36.86566      -19747.035      140.19259     -19615.604     -34.197889      98.09348      -19934.707      66.008026      81.604936      37.243017     -19998.602      0              187.67216     -92.367487     -19699.21      -19606.842    
    430000   430000         2176.4092      695.55127      52.731324     -147.45658     -19768.753      130.61829     -19673.183     -36.449206      99.66589      -19935.149      51.164054      70.917325      41.389182     -19998.366      0              166.39555     -61.498506     -19699.634     -19638.135    
    431000   431000         2132.7318      767.39908      58.17827      -166.5241      -19763.607      144.11067     -19659.077     -37.160326      98.011047     -19937.571      53.998005      78.684134      38.875136     -19998.422      0              173.96354     -79.520412     -19699.017     -19619.497    
    432000   432000         2181.4222      696.92577      52.835528     -1044.2045     -19779.075      130.87641     -19896.391     -38.597446      99.866435     -19936.593      64.157838      62.444049      28.611026     -19997.861      0              157.51717     -51.48527      -19699.684     -19648.199    
    433000   433000         2084.511       649.57667      49.245885     -571.67834     -19768.543      121.98467     -19782.438     -33.283658      94.424241     -19936.212      51.836434      75.691447      37.011397     -19997.353      0              167.66902     -52.574309     -19699.133     -19646.558    
    434000   434000         2129.9022      764.68733      57.972686     -751.84979     -19768.01       143.60142     -19803.112     -37.203555      96.291122     -19939.124      67.072105      64.185821      37.139483     -19998.212      0              171.1143      -75.279436     -19699.688     -19624.408    
    435000   435000         2102.0953      657.42414      49.840819     -284.73053     -19780.094      123.45836     -19724.312     -44.546723      101.25535     -19940.939      47.939115      72.454338      37.526354     -19997.647      0              160.84506     -43.520503     -19700.156     -19656.635    
    436000   436000         2158.1538      793.22913      60.136504     -745.85256     -19778.788      148.96132     -19807.105     -36.087248      97.329763     -19935.944      53.203154      68.028975      33.243501     -19997.187      0              157.15645     -70.04729      -19699.874     -19629.826    
    437000   437000         2233.3585      697.8416       52.904959     -1170.8094     -19771.56       131.0484      -19918.796     -41.308721      95.956811     -19943.096      63.746238      65.894296      38.234834     -19997.744      0              171.53563     -59.160683     -19699.673     -19640.512    
    438000   438000         2215.4772      774.11678      58.687553     -1293.5195     -19750.114      145.37219     -19912.193     -36.554265      98.559017     -19934.753      75.959063      73.283653      33.412075     -19996.757      0              184.63849     -95.640407     -19700.382     -19604.742    
    439000   439000         2308.6832      636.59628      48.261812     -642.37519     -19782.281      119.54707     -19815.417     -42.932867      97.760976     -19942.017      43.67537       84.111311      29.488391     -19996.845      0              159.73568     -37.616853     -19700.351     -19662.734    
    440000   440000         2295.2934      584.9865       44.349157     -737.7522      -19765.734      109.85522     -19831.232     -38.14558       95.709158     -19939.329      65.339937      71.501784      33.845799     -19996.892      0              173.5945      -43.877577     -19699.756     -19655.879    
    441000   441000         2292.0354      648.06232      49.131078     -1233.7445     -19750.104      121.70029     -19921.647     -38.199552      96.891042     -19939.455      67.902174      82.044517      36.969703     -19998.146      0              189.35074     -71.00403      -19699.408     -19628.404    
    442000   442000         2286.7707      651.54835      49.395363     -1246.5812     -19770.279      122.35494     -19944.218     -40.426412      97.613395     -19941.446      57.707039      71.619007      38.487639     -19998.632      0              171.16616     -51.900352     -19699.825     -19647.924    
    443000   443000         2136.142       657.37977      49.837456     -453.36618     -19755.153      123.45003     -19739.461     -36.927682      96.906037     -19937.998      69.396679      74.614245      35.660247     -19997.976      0              182.84528     -67.725896     -19699.428     -19631.703    
    444000   444000         2114.9513      698.39139      52.94664      -459.83368     -19766.394      131.15164     -19744.538     -39.187704      95.016172     -19942.635      54.211573      84.997741      34.761946     -19998.463      0              176.2411      -64.850888     -19700.093     -19635.242    
    445000   445000         2173.1151      612.89141      46.464692     -661.97995     -19770.738      115.09551     -19812.985     -44.543512      98.522434     -19943.876      68.92847       62.730778      37.630391     -19997.855      0              173.13808     -43.895863     -19699.538     -19655.642    
    446000   446000         2153.8584      802.07853      60.807398     -438.59298     -19769.111      150.62316     -19722.735     -37.068625      100.16643     -19933.919      50.026135      75.159461      36.135239     -19997.017      0              164.80865     -81.495122     -19699.983     -19618.488    
    447000   447000         2188.7046      590.59797      44.774576     -222.0864      -19775.333      110.909       -19717.21      -35.793305      97.725872     -19936.416      49.430415      83.598142      25.633652     -19998.348      0              161.08304     -35.574353     -19699.998     -19664.424    
    448000   448000         2144.5889      709.31101      53.774481     -1547.6344     -19760.424      133.20225     -19995.072     -40.43148       99.015992     -19938.755      53.069973      79.113778      43.03013      -19997.339      0              178.33059     -72.11677      -19699.339     -19627.222    
    449000   449000         2084.7703      802.51356      60.840378     -482.51476     -19749.963      150.70485     -19713.945     -41.718877      97.037074     -19942.621      64.651494      80.912081      43.528536     -19997.939      0              192.6577      -99.692326     -19698.95      -19599.258    
    450000   450000         2143.1442      743.18003      56.342168     -1003.7468     -19750.068      139.56255     -19849.081     -39.95154       98.433939     -19939.514      56.817999      92.168765      37.470058     -19997.996      0              189.44565     -89.209655     -19699.715     -19610.506    
    451000   451000         2089.192       673.54468      51.062954     -1456.0087     -19760.742      126.48565     -19980.328     -38.566903      97.694116     -19938.93       52.19255       87.045524      35.966055     -19998.058      0              178.18803     -65.166083     -19699.423     -19634.257    
    452000   452000         2128.897       743.58584      56.372934     -156.97047     -19741.475      139.63875     -19639.146     -33.301089      97.504304     -19932.977      57.871214      86.438103      43.232617     -19997.18       0              191.5015      -97.656243     -19699.493     -19601.836    
    453000   453000         2145.7722      660.51741      50.075327     -878.84616     -19769.778      124.03925     -19854.628     -40.739503      97.957749     -19940.381      44.664408      79.088752      42.922192     -19997.599      0              170.60256     -53.608919     -19699.348     -19645.739    
    454000   454000         2126.5817      690.94425      52.382055     -140.44989     -19758.521      129.75313     -19662.15      -31.891312      96.147496     -19932.503      47.338055      74.028002      48.639409     -19996.759      0              173.98193     -70.742846     -19699.51      -19628.768    
    455000   455000         2132.9333      624.97796      47.381        -618.14104     -19778.41       117.36526     -19807.967     -37.732577      100.45062     -19935.32       51.490102      76.908883      26.168304     -19998.038      0              156.91062     -38.593044     -19699.637     -19661.044    
    456000   456000         2155.8924      636.96251      48.289577     -664.03357     -19746.406      119.61585     -19784.621     -31.36527       94.891411     -19933.571      57.934871      88.619821      36.688489     -19997.097      0              187.16497     -72.638612     -19699.429     -19626.79     
    457000   457000         2139.3199      641.08122      48.601826      148.40222     -19770.053      120.38931     -19614.391     -34.702189      96.338904     -19936.969      50.182785      69.2392        43.853924     -19998.605      0              166.91564     -50.14626      -19699.81      -19649.664    
    458000   458000         2163.0096      724.1637       54.900497      316.27218     -19734.687      135.99145     -19523.522     -30.265484      98.634843     -19930.575      65.507282      76.059305      49.89004      -19998.944      0              195.88783     -100.34055     -19699.036     -19598.695    
    459000   459000         2142.9677      734.58111      55.690265     -1304.3258     -19777.914      137.94775     -19949.985     -42.011755      99.422036     -19938.459      57.461239      73.46837       27.480617     -19995.87       0              160.5457      -59.992977     -19699.959     -19639.966    
    460000   460000         2189.356       824.14754      62.480499     -714.64722     -19754.29       154.76752     -19769.384     -44.140728      100.24811     -19942.769      64.975663      83.023794      38.000583     -19998.877      0              188.47908     -99.823102     -19699.346     -19599.523    
    461000   461000         2187.5286      756.30858      57.337473     -549.38145     -19758.971      142.02797     -19747.523     -37.81237       97.817496     -19939.417      59.19498       81.409996      36.870861     -19999.423      0              180.44684     -82.793226     -19699.736     -19616.943    
    462000   462000         2207.9484      604.16777      45.803333     -1616.3547     -19758.328      113.45729     -20029.055     -45.106344      99.544219     -19945.418      77.981116      78.252665      29.086761     -19999.856      0              187.08975     -54.654935     -19699.526     -19644.871    
    463000   463000         2195.7812      812.57662      61.603282     -837.04313     -19776.228      152.5946      -19822.587     -38.140256      97.493696     -19938.799      52.264429      80.534131      27.440486     -19998.152      0              162.57038     -76.657689     -19700.291     -19623.634    
    464000   464000         2181.5054      812.34853      61.58599      -1152.5759     -19772.678      152.55177     -19894.077     -45.144176      96.676252     -19945.299      51.136044      86.206741      32.933166     -19996.831      0              172.62042     -80.385456     -19700.512     -19620.126    
    465000   465000         2216.7383      667.04936      50.570529     -965.58773     -19778.144      125.26589     -19882.384     -44.165994      100.50991     -19940.923      50.1596        75.280142      34.52236      -19997.267      0              162.7788      -47.687482     -19700.566     -19652.878    
    466000   466000         2194.5472      810.76286      61.465776     -1883.2596     -19754.403      152.254       -20049.772     -40.067912      100.47859     -19936.327      70.572718      72.801816      36.478607     -19996.738      0              181.92409     -97.440846     -19699.59      -19602.149    
    467000   467000         2218.4383      757.27657      57.410859     -235.08795     -19759.235      142.20975     -19672.902     -32.2502        96.284192     -19933.403      67.828544      68.018893      35.149918     -19997.437      0              174.16747     -82.560563     -19699.586     -19617.025    
    468000   468000         2115.8244      701.11256      53.152938     -1402.8455     -19753.262      131.66265     -19955.035     -37.59584       99.295339     -19934.625      63.482595      77.067532      37.434148     -19996.324      0              181.36325     -78.192407     -19699.791     -19621.599    
    469000   469000         2154.5147      803.2447       60.895808      507.15299     -19774.365      150.84215     -19502.98      -35.155444      99.844037     -19933.21       44.197293      88.756784      24.052755     -19997.898      0              158.8443      -76.825611     -19700.349     -19623.523    
    470000   470000         2126.0358      680.07824      51.558278     -611.7762      -19775.873      127.7126      -19793.571     -42.603445      96.009203     -19943.982      60.524916      69.38954       35.644763     -19997.388      0              168.10872     -51.627438     -19699.788     -19648.161    
    471000   471000         2146.4772      675.16321      51.185659     -608.51947     -19777.558      126.7896      -19795.405     -38.785568      96.784878     -19939.952      53.717545      67.854519      37.944123     -19997.951      0              162.39307     -49.474535     -19700.243     -19650.769    
    472000   472000         2133.9564      773.66566      58.653353     -521.48523     -19792.308      145.28747     -19770.97      -40.647239      97.117527     -19941.661      55.641221      62.718023      28.388246     -19998.131      0              149.3525      -53.159583     -19700.18      -19647.021    
    473000   473000         1974.6246      826.99503      62.696374     -472.88462     -19763.806      155.30225     -19720.902     -38.31736       99.112138     -19936.867      53.499296      82.311731      35.408155     -19997.662      0              173.06076     -90.926146     -19699.43      -19608.504    
    474000   474000         2087.5525      745.3258       56.504844     -809.3898      -19761.711      139.9655      -19814.125     -42.557604      102.76104     -19937.398      68.999247      66.79461       37.275776     -19997.602      0              175.68729     -77.734328     -19699.48      -19621.745    
    475000   475000         2077.4186      564.57347      42.801599     -228.81706     -19755.282      106.02184     -19703.647     -29.690939      97.642327     -19928.052      57.145241      78.132422      34.711086     -19996.004      0              172.77042     -49.921064     -19699.181     -19649.26     
    476000   476000         2117.8598      697.76444      52.899109     -912.39584     -19785.852      131.0339      -19871.681     -41.069325      100.64583     -19938.863      60.04351       73.265833      18.04954      -19998.44       0              153.01179     -45.424207     -19700.242     -19654.818    
    477000   477000         2151.2493      673.98495      51.096332     -529.59609     -19742.949      126.56833     -19742.258     -37.996159      94.682366     -19940.703      70.817379      80.867193      42.601536     -19997.389      0              197.75456     -83.356547     -19699.737     -19616.38     
    478000   478000         2191.8423      579.13993      43.905915     -2515.3868     -19762.35       108.75729     -20251.463     -43.290098      97.218891     -19942.657      72.911231      69.762475      35.099807     -19996.585      0              180.30665     -46.579997     -19700.173     -19653.593    
    479000   479000         2179.4272      713.77211      54.112687      663.31739     -19767.198      134.04        -19475.497     -29.016186      95.575687     -19929.782      47.253032      80.461809      32.266343     -19996.341      0              162.584       -66.909723     -19700.067     -19633.158    
    480000   480000         2143.0545      789.64591      59.864852     -982.02244     -19753.846      148.28842     -19838.969     -41.068244      100.0296      -19937.683      59.483045      84.775345      37.540793     -19996.644      0              183.83744     -94.405186     -19699.962     -19605.557    
    481000   481000         2167.3694      729.82391      55.32961      -10.680977     -19754.862      137.05439     -19620.347     -33.467335      97.853915     -19932.584      56.425532      79.247223      39.777881     -19996.971      0              177.72168     -82.03153      -19699.84      -19617.808    
    482000   482000         2121.4569      681.03133      51.630534     -44.577327     -19806.461      127.89158     -19689.165     -36.365667      96.779341     -19936.768      35.719786      70.65713       22.73305      -19997.182      0              130.30707     -22.727527     -19701.297     -19678.569    
    483000   483000         2094.3792      799.88591      60.64117      -1117.9921     -19775.814      150.2114      -19891.333     -36.299968      97.614815     -19936.554      54.826598      70.541262      33.502414     -19997.869      0              160.73947     -75.005392     -19700.608     -19625.603    
    484000   484000         2133.2644      877.78448      66.546838     -2339.2759     -19752.102      164.84005     -20143.274     -44.228434      97.921871     -19942.486      61.14427       80.977238      44.789104     -19996.179      0              190.38361     -113.30791     -19700.57      -19587.262    
    485000   485000         2132.384       600.72524      45.542347     -947.88468     -19761.736      112.81081     -19874.224     -41.487915      96.91878      -19942.948      51.52933       81.34407       45.610529     -19998.379      0              181.21209     -51.651057     -19700.577     -19648.926    
    486000   486000         2186.697       676.42603      51.281396     -765.83567     -19764.952      127.02674     -19819.953     -39.530727      97.462253     -19939.789      63.819933      70.750159      37.564989     -19997.721      0              174.8375      -62.275906     -19700.201     -19637.925    
    487000   487000         2139.2402      877.88265      66.55428       389.21961     -19763.544      164.85849     -19506.173     -30.74233       99.824687     -19928.525      63.077384      64.04884       34.791238     -19997.607      0              164.98138     -100.8041      -19699.489     -19598.685    
    488000   488000         2208.8201      707.61749      53.646091     -583.89912     -19758.24       132.88422     -19764.14      -37.879409      98.183926     -19939.126      67.592161      76.385583      34.358848     -19999.431      0              180.88639     -74.968832     -19700.324     -19625.356    
    489000   489000         2211.8567      554.45394      42.034414      351.7354      -19769.101      104.12148     -19581.377     -33.740797      96.221275     -19932.485      52.571257      78.73504       29.422395     -19994.966      0              163.38439     -35.679252     -19700.659     -19664.979    
    490000   490000         2241.7583      716.11859      54.290579     -309.78351     -19753.255      134.48065     -19692.406     -37.400576      98.002898     -19935.851      62.037617      87.071761      31.538874     -19996.454      0              182.59628     -80.976522     -19699.751     -19618.775    
    491000   491000         2256.2397      697.65063      52.890481      564.6476      -19771.914      131.01253     -19506.693     -35.394281      97.572882     -19935.237      60.507314      70.133664      29.878815     -19997.415      0              163.3229      -59.137478     -19700.039     -19640.901    
    492000   492000         1996.3185      582.57095      44.166029      535.15567     -19773.849      109.4016      -19537.249     -34.358431      99.738368     -19933.9        51.790654      73.995913      31.608951     -19999.28       0              160.05101     -35.587165     -19700.034     -19664.447    
    493000   493000         2155.9597      638.45611      48.40281      -1171.831      -19741.13       119.89633     -19899.761     -40.345834      98.120413     -19938.822      56.881525      85.425446      51.742851     -19996.597      0              197.69185     -79.062049     -19700.296     -19621.234    
    494000   494000         2230.7727      705.83293      53.5108        175.4918      -19785.388      132.5491      -19611.127     -35.2194        98.639043     -19935.112      48.64955       69.452785      29.946234     -19998.532      0              149.72387     -47.83042      -19700.669     -19652.839    
    495000   495000         2175.6065      616.63797      46.748727     -705.9415      -19764.547      115.79908     -19816.539     -37.808015      99.370398     -19935.884      65.333585      71.766582      31.061358     -19997.446      0              171.33727     -51.382783     -19700.13      -19648.747    
    496000   496000         2149.1576      641.70567      48.649166     -876.87589     -19749.38       120.50657     -19837.294     -37.75078       96.704416     -19939.475      76.238244      79.479458      32.047051     -19998.428      0              190.09497     -70.587709     -19699.461     -19628.873    
    497000   497000         2180.7981      512.10724      38.824015     -1174.9215     -19780.11       96.169148     -19963.202     -44.82845       98.982177     -19943.301      60.853592      78.286987      22.348142     -19997.455      0              163.19122     -16.713876     -19700.654     -19683.941    
    498000   498000         2190.4491      745.83384      56.54336      -343.70977     -19761.56       140.06091     -19703.194     -41.221649      98.622239     -19938.757      54.617714      75.178984      43.853735     -19996.157      0              177.19675     -78.912049     -19700.411     -19621.499    
    499000   499000         2175.6972      835.68639      63.355286     -692.61978     -19747.805      156.93441     -19755.496     -30.246152      99.892687     -19928.065      67.42308       78.768213      31.656634     -19997.712      0              180.26033     -108.78348     -19699.654     -19590.871    
    500000   500000         2187.6894      671.54161      50.911096     -630.97122     -19762.652      126.10949     -19786.515     -34.218078      97.674125     -19931.755      59.585792      80.875279      26.734048     -19995.211      0              169.10273     -63.605469     -19700.148     -19636.543    
    501000   501000         2233.5352      620.50314      47.041754     -462.83458     -19779.21       116.52493     -19772.695     -37.40228       98.760963     -19937.087      52.797226      63.711092      38.961059     -19998.446      0              157.87678     -37.849104     -19700.535     -19662.686    
    502000   502000         2182.2273      706.11927      53.532508      471.90099     -19748.352      132.60287     -19503.585     -33.973164      98.204988     -19933.862      46.820937      84.20134       50.155231     -19998.094      0              185.51017     -84.871618     -19700.62      -19615.749    
    503000   503000         2197.6121      609.23754      46.187684      19.370448     -19768.991      114.40935     -19649.977     -31.695251      98.131971     -19931.232      47.691446      80.65342       31.272627     -19997.669      0              162.24136     -45.680111     -19700.262     -19654.581    
    504000   504000         2175.5016      796.83118      60.409584     -110.87266     -19764.804      149.63775     -19641.519     -35.468109      98.425977     -19933.471      57.324862      70.859596      37.153431     -19996.429      0              168.66699     -85.0825       -19700.248     -19615.166    
    505000   505000         2234.1081      689.9107       52.303699     -215.15469     -19778.519      129.55904     -19700.099     -34.544304      97.773997     -19934.522      50.216227      79.583978      23.362008     -19997.751      0              156.00294     -51.630976     -19700.591     -19648.96     
    506000   506000         2217.7366      712.86586      54.043982     -610.41862     -19775.05       133.86982     -19786.268     -34.37309       95.531503     -19935.859      46.63213       79.395911      32.343263     -19997.018      0              160.80928     -59.290856     -19700.471     -19641.18     
    507000   507000         2130.5276      711.51294      53.941414      217.05948     -19744.489      133.61575     -19559.282     -29.577414      95.85728      -19929.572      64.878568      75.04159       42.468799     -19995.852      0              185.08263     -89.250564     -19700.124     -19610.873    
    508000   508000         2102.4972      575.41037      43.623169     -1292.4611     -19751.363      108.05691     -19950.505     -37.375605      96.885902     -19936.955      73.342825      78.744108      31.578207     -19996.466      0              185.59234     -56.930703     -19700.237     -19643.306    
    509000   509000         2151.8527      781.81122      59.270887     -166.29513     -19753.937      146.81714     -19646.646     -38.795835      96.09086      -19940.093      61.506277      80.525955      40.705844     -19997.388      0              186.15574     -92.684129     -19699.804     -19607.12     
    510000   510000         2131.4417      583.56644      44.241499     -424.18314     -19761.088      109.58855     -19752.322     -31.089035      96.288465     -19931.654      68.099743      64.614967      35.302948     -19996.853      0              170.56582     -48.395003     -19699.894     -19651.499    
    511000   511000         2146.9077      579.57636      43.939002     -83.033539     -19763.252      108.83924     -19674.149     -35.35408       99.360665     -19933.403      46.243828      77.244885      44.055282     -19997.41       0              170.15098     -46.215625     -19700.629     -19654.413    
    512000   512000         2131.0399      703.37435      53.324409     -644.1004      -19792.952      132.0874      -19813.958     -44.848734      96.428946     -19946.561      56.672865      67.775075      27.004227     -19998.141      0              153.60929     -39.778233     -19700.643     -19660.864    
    513000   513000         2172.8936      790.43772      59.924881     -196.31227     -19778.041      148.43712     -19676.264     -40.043824      98.811611     -19938.209      45.326064      71.727792      39.58364      -19996.977      0              160.16871     -70.8041       -19700.408     -19629.604    
    514000   514000         2186.2229      692.26638      52.482288      9.3034159     -19781.058      130.00142     -19648.845     -38.865989      98.657014     -19937.254      53.023992      69.46612       31.357791     -19997.045      0              156.19669     -49.20033      -19700.257     -19651.056    
    515000   515000         2141.9107      872.72059      66.162933     -1233.5151     -19737.661      163.8891      -19866.961     -38.708368      96.725165     -19937.305      84.825237      67.391941      44.458798     -19995.322      0              199.64368     -125.49867     -19699.271     -19573.772    
    516000   516000         2123.6335      685.15111      51.942864     -885.29836     -19761.201      128.66524     -19842.958     -39.823919      98.965636     -19938.344      49.690768      81.142997      43.193641     -19997.486      0              177.1437      -68.371803     -19700.907     -19632.536    
    517000   517000         2120.4301      608.0019       46.094007     -626.68254     -19751.44       114.1773      -19786.216     -38.357502      95.688892     -19939.97       68.356946      75.091454      42.251296     -19997.301      0              188.52981     -62.571852     -19699.835     -19637.263    
    518000   518000         2155.1202      762.92274      57.838908      207.45557     -19749.987      143.27005     -19557.408     -29.925604      99.223441     -19929.071      59.030579      71.303579      45.236921     -19998.369      0              179.0838      -93.43885      -19700.156     -19606.717    
    519000   519000         2125.4795      687.5851       52.127391     -952.37724     -19761.993      129.12232     -19859.237     -38.813556      101.29224     -19935.027      60.089252      69.200865      40.047446     -19997.506      0              173.03355     -67.476171     -19700.347     -19632.871    
    520000   520000         2157.4937      662.14095      50.198411     -446.77301     -19772.4        124.34413     -19754.247     -33.471606      99.517767     -19931.461      44.262638      78.831411      33.214514     -19997.508      0              159.06162     -52.458701     -19700.514     -19648.056    
    521000   521000         2125.55        663.55696      50.305762     -877.3931      -19753.99       124.61005     -19837.924     -32.553006      97.883406     -19931.414      55.245535      75.824948      43.378693     -19996.744      0              177.42356     -71.092743     -19700.473     -19629.38     
    522000   522000         2120.6726      709.38338      53.779967     -513.03497     -19754.949      133.21584     -19743.674     -40.556155      99.13154      -19938.594      59.63054       78.297492      41.776093     -19997.169      0              183.64472     -78.191705     -19699.925     -19621.733    
    523000   523000         2150.4851      688.70598      52.212366     -449.85398     -19771.038      129.33281     -19748.629     -35.06115       95.954714     -19935.847      53.135171      68.257081      39.388964     -19996.74       0              164.80899     -58.883065     -19700.588     -19641.705    
    524000   524000         2114.0406      638.75772      48.425676     -413.01236     -19772.927      119.95297     -19751.141     -37.218879      96.4303       -19938.208      47.501258      71.230159      43.074996     -19997.419      0              165.28029     -47.637523     -19700.612     -19652.974    
    525000   525000         2163.1359      691.59501      52.431391     -1192.3066     -19765.83       129.87534     -19919.348     -37.492681      97.726649     -19938.493      60.141942      61.295823      47.215519     -19998.727      0              172.66291     -64.427662     -19700.382     -19635.954    
    526000   526000         2137.4892      644.71623      48.877404     -1081.2859     -19754.654      121.07193     -19890.588     -37.273217      97.006209     -19941.484      65.959042      74.691434      43.221977     -20001.217      0              186.83026     -66.530436     -19700.112     -19633.582    
    527000   527000         2152.3565      694.76632      52.671815     -1133.6776     -19789.869      130.47089     -19928.857     -39.651858      97.242836     -19938.968      55.823493      67.176212      24.061845     -19996.559      0              149.09921     -41.846594     -19701.245     -19659.398    
    528000   528000         2137.5949      713.39446      54.084056     -902.75032     -19776.901      133.96908     -19857.503     -37.641176      98.181634     -19937.216      43.696718      72.928913      40.753814     -19997.757      0              160.31526     -57.809968     -19700.742     -19642.932    
    529000   529000         2126.2659      745.99406      56.555507      454.03117     -19779.922      140.091       -19531.914     -32.169485      99.503902     -19930.391      37.875014      77.478248      32.97898      -19997.725      0              150.46902     -60.535833     -19700.366     -19639.831    
    530000   530000         2081.4254      691.22091      52.403029     -491.94456     -19755.1        129.80509     -19742.223     -38.686148      100.72728     -19934.86       63.469336      76.984811      35.941583     -19996.901      0              179.75996     -74.649286     -19699.945     -19625.295    
    531000   531000         2175.2365      653.47537      49.541454     -313.14303     -19751.771      122.71682     -19703.484     -36.188457      98.14948      -19934.996      54.355116      82.066249      43.869493     -19996.957      0              183.22423     -70.69692      -19699.751     -19629.055    
    532000   532000         2096.6335      612.6997       46.450157     -233.39645     -19780.938      115.05951     -19721.353     -33.188335      104.22511     -19926.357      42.204415      68.99117       31.694527     -19997.393      0              145.41916     -34.899019     -19700.777     -19665.878    
    533000   533000         2198.5048      691.41778      52.417954      481.82418     -19749.197      129.84206     -19504.833     -25.231991      96.738633     -19924.067      51.283871      78.074312      41.941031     -19995.574      0              174.86995     -80.656087     -19700.011     -19619.355    
    534000   534000         2119.5349      609.34339      46.195709     -1369.1086     -19776.279      114.42923     -19987.267     -43.322741      99.192949     -19940.873      49.691009      84.158316      28.662453     -19996.744      0              164.59411     -38.467741     -19700.318     -19661.85     
    535000   535000         2092.8783      804.04941      60.956814     -565.22038     -19775.386      150.99327     -19758.738     -40.491926      96.663587     -19940.186      46.063877      78.263414      37.394816     -19996.358      0              164.79985     -75.363898     -19699.757     -19624.393    
    536000   536000         2052.8443      622.94819      47.227119     -571.52264     -19774.183      116.98408     -19793.042     -34.11292       100.29992     -19930.543      41.699252      73.095775      37.689545     -19996.73       0              156.35931     -43.127039     -19700.326     -19657.199    
    537000   537000         2064.0563      622.57017      47.19846      -951.00394     -19770.783      116.91309     -19879.91      -36.44486       98.721697     -19935.244      55.390647      71.435311      34.532324     -19997.521      0              164.4607      -46.031127     -19699.901     -19653.87     
    538000   538000         2137.7689      661.81123      50.173414     -1024.0469     -19772.262      124.28221     -19891.38      -39.750064      98.289888     -19939.828      48.960543      84.699574      31.479685     -19998.368      0              167.56671     -52.213783     -19700.193     -19647.979    
    539000   539000         2134.7396      718.0502       54.437019     -197.51201     -19761.264      134.84339     -19673.366     -33.960276      96.718258     -19932.827      59.656157      76.572911      33.01774      -19995.585      0              171.56312     -73.035092     -19699.456     -19626.421    
    540000   540000         2050.6856      617.22847      46.793494     -566.36696     -19782.164      115.90997     -19800.871     -35.254102      97.515748     -19934.609      35.928328      77.617168      35.797791     -19996.871      0              152.44525     -34.503108     -19700.757     -19666.254    
    541000   541000         2147.7164      741.56326      56.219598     -418.46183     -19782.364      139.25893     -19742.567     -38.09897       97.497115     -19939.654      58.539611      61.557405      34.952214     -19999.053      0              157.29031     -57.022159     -19700.127     -19643.105    
    542000   542000         2105.3351      803.58659      60.921727     -157.68043     -19777.561      150.90636     -19664.133     -32.111798      94.553569     -19934.361      53.823724      74.756982      26.137519     -19996.803      0              156.80076     -73.804123     -19700.458     -19626.654    
    543000   543000         2073.6569      575.10243      43.599823     -1151.5414     -19744.394      107.99908     -19910.1       -35.378264      98.814059     -19934.004      73.964303      77.480601      35.679081     -19997.44       0              189.60973     -63.153404     -19699.549     -19636.395    
    544000   544000         2122.8607      632.26659      47.933568      80.855591     -19766.74       118.734       -19628.788     -39.757776      98.509393     -19939.145      51.797918      88.824719      29.519786     -19997.897      0              172.40504     -52.193336     -19700.199     -19648.006    
    545000   545000         2066.8713      716.05312      54.285616     -529.70274     -19732.259      134.46836     -19723.693     -30.77091       98.734016     -19928.221      58.967061      80.708241      53.29105      -19996.184      0              195.96177     -101.61789     -19699.408     -19597.79     
    546000   546000         2091.5705      738.69998      56.002526     -805.70939     -19765.295      138.72123     -19818.079     -33.14855       97.950578     -19933.274      56.395771      68.829772      39.297317     -19998.076      0              167.97906     -73.059784     -19699.633     -19626.573    
    547000   547000         2119.2366      637.0893       48.299188      381.75875     -19772.528      119.63966     -19562.15      -36.335935      93.682591     -19937.554      55.795049      76.1724        31.215784     -19994.901      0              165.02611     -47.328787     -19700.218     -19652.889    
    548000   548000         2024.8775      752.69915      57.063834     -327.2891      -19766.772      141.35015     -19703.213     -38.402546      98.007221     -19936.557      58.122093      77.179082      32.112196     -19996.162      0              169.78531     -74.886596     -19700.308     -19625.421    
    549000   549000         2050.8792      715.85576      54.270653      150.63282     -19774.527      134.43129     -19604.293     -37.285944      99.382913     -19937.087      46.909131      69.65359       42.926495     -19999.184      0              162.55999     -59.966939     -19700.063     -19640.096    
    550000   550000         2132.3259      629.56932      47.729082     -622.60558     -19767.591      118.22747     -19797.348     -41.474301      99.255139     -19940.866      50.729038      87.099026      32.751064     -19998.647      0              173.27472     -50.79391      -19700.158     -19649.364    
    551000   551000         2180.708       680.51354      51.591279     -1197.6289     -19768.572      127.79434     -19925.437     -39.312902      96.212785     -19940.306      49.107166      88.88765       31.096625     -19997.206      0              171.73408     -59.80946      -19700.587     -19640.778    
    552000   552000         2180.3481      671.88922      50.93745      -681.63904     -19760.854      126.17477     -19796.695     -38.563682      97.342688     -19938.44       58.174261      88.64722       27.893198     -19997.219      0              177.58573     -65.644715     -19700.324     -19634.68     
    553000   553000         2112.0435      626.33202      47.483655     -1467.1172     -19765.839      117.61954     -19996.932     -44.306259      100.76706     -19941.332      64.143234      80.644224      28.207269     -19997.793      0              175.49279     -51.983534     -19700.203     -19648.22     
    554000   554000         2139.5503      693.72021      52.592507      74.497562     -19753.954      130.27444     -19605.972     -36.161437      94.725044     -19939.389      56.369638      88.063137      38.721459     -19997.953      0              185.43532     -76.626675     -19700.306     -19623.679    
    555000   555000         2059.0464      666.96516      50.564146     -1703.649      -19767.09       125.25008     -20046.772     -47.462051      100.56346     -19944.913      62.203011      80.294706      33.018244     -19998.015      0              177.82321     -58.358282     -19700.198     -19641.84     
    556000   556000         2046.0516      755.36051      57.265598      111.70663     -19768.132      141.84993     -19599.731     -33.851543      97.576022     -19932.704      47.897013      71.441088      42.142346     -19996.428      0              164.57213     -73.180153     -19699.462     -19626.282    
    557000   557000         2061.6832      775.64184      58.803172     -764.99613     -19770.675      145.65858     -19806.845     -42.658261      99.308508     -19940.956      51.534467      74.747359      40.975761     -19997.606      0              170.28072     -75.343541     -19700.36      -19625.017    
    558000   558000         2108.5665      683.31566      51.803714     -614.16418     -19766.661      128.32055     -19784.318     -36.389782      99.700066     -19934.444      51.964685      73.064301      39.846877     -19997.754      0              167.7828      -61.953907     -19700.294     -19638.34     
    559000   559000         2066.141       921.22095      69.839855      409.08226     -19767.532      172.99703     -19497.302     -24.594719      97.37697      -19925.145      60.305821      66.621364      28.367404     -19997.928      0              157.61302     -105.53586     -19700.071     -19594.535    
    560000   560000         2135.9111      640.09817      48.527298     -12.678744     -19791.036      120.2047      -19673.844     -34.713006      96.493531     -19937.376      39.910608      73.132047      30.855315     -19999.156      0              146.34016     -30.467133     -19701.298     -19670.831    
    561000   561000         2176.4563      659.11652      49.969123     -157.41621     -19782.917      123.77617     -19696.556     -38.710767      100.80198     -19936.065      51.868171      64.986356      33.910577     -19998.156      0              153.14821     -40.964665     -19700.105     -19659.14     
    562000   562000         2085.4845      647.42874      49.083046     -684.00741     -19775.154      121.58131     -19816.151     -38.151828      99.772437     -19935.78       46.847285      79.02298       31.931719     -19997.4        0              160.62579     -46.615723     -19700.188     -19653.573    
    563000   563000         2099.3354      689.30214      52.257563      76.513275     -19761.303      129.44476     -19613.672     -39.934576      98.439124     -19938.872      60.908321      74.78425       38.367197     -19997.377      0              177.56873     -67.598599     -19699.457     -19631.858    
    564000   564000         2045.1331      629.49696      47.723596      215.77383     -19772.786      118.21388     -19603.286     -40.074972      97.94689      -19938.983      58.532115      65.686897      38.379301     -19996.855      0              166.19709     -45.685962     -19700.258     -19654.572    
    565000   565000         2063.9693      622.01883      47.156662     -732.58534     -19762.026      116.80956     -19819.341     -33.402422      100.93102     -19929.56       54.483161      76.655169      33.933259     -19997.089      0              167.53401     -54.303073     -19699.519     -19645.216    
    566000   566000         2105.4349      773.45887      58.637676     -1174.3659     -19774.857      145.24864     -19908.738     -39.702944      98.900952     -19938.804      46.563307      78.596432      36.606074     -19998.002      0              163.94728     -70.621935     -19700.23      -19629.608    
    567000   567000         2149.9145      800.84793      60.714103     -795.38079     -19754.67       150.39206     -19793.328     -39.978763      98.741023     -19939.656      78.387381      76.139323      28.146573     -19998.418      0              184.98622     -95.037384     -19699.315     -19604.278    
    568000   568000         2150.4177      721.87263      54.726806     -1238.0742     -19753.224      135.56121     -19911.935     -40.921729      97.851517     -19942.237      66.29751       86.850129      33.553755     -19999.167      0              189.01284     -81.967124     -19699.63      -19617.663    
    569000   569000         2196.4356      694.79973      52.674348     -1033.8644     -19752.12       130.47716     -19867.377     -38.716937      99.982074     -19936.609      67.410876      75.346737      38.30168      -19997.874      0              184.48942     -77.49729      -19699.14      -19621.643    
    570000   570000         2107.1483      611.8401       46.384989     -1018.1504     -19794.121      114.89808     -19921.222     -41.097003      96.507424     -19941.856      60.954312      61.721126      23.529337     -19997.266      0              147.73514     -20.843921     -19700.066     -19679.223    
    571000   571000         2148.5848      701.15824      53.156401     -1681.7873     -19770.441      131.67123     -20038.506     -40.474332      98.118752     -19938.93       51.69879       68.02541       45.964727     -19996.574      0              168.4883      -61.221606     -19699.992     -19638.77     
    572000   572000         2136.7994      685.04434      51.93477      -1723.6641     -19754.758      128.64519     -20035.802     -36.988775      97.639167     -19935.608      59.041239      81.831833      37.33218      -19996.258      0              180.85007     -73.220528     -19699.333     -19626.112    
    573000   573000         2148.033       680.7694       51.610677     -634.49678     -19763.51       127.84239     -19786.478     -34.02564       98.349093     -19933.527      46.253326      77.479812      42.31472      -19997.851      0              170.01736     -64.004336     -19699.672     -19635.668    
    574000   574000         2172.0073      636.71884      48.271103     -977.33658     -19776.263      119.57009     -19888.991     -39.248268      96.403283     -19941.562      60.535755      77.446247      25.032292     -19998.717      0              165.29898     -42.962709     -19699.656     -19656.693    
    575000   575000         2185.5067      731.36942      55.446779     -677.03048     -19765.43       137.34462     -19789.006     -37.989223      97.22353      -19938.375      50.433283      80.187098      39.244648     -19997.609      0              172.9448      -72.174447     -19700.26      -19628.086    
    576000   576000         2127.419       686.15292      52.018814     -292.23257     -19795.642      128.85337     -19736.248     -37.447013      97.246037     -19939.273      34.06003       70.782575      36.184611     -19999.072      0              143.63052     -33.470715     -19700.259     -19666.789    
    577000   577000         2165.1546      789.15405      59.827564     -483.70463     -19769.908      148.19605     -19736.681     -34.555346      98.461175     -19933.84       56.373399      65.372643      38.918758     -19997.746      0              163.9327      -77.888431     -19699.6       -19621.712    
    578000   578000         2193.3984      718.15103      54.444663      376.4331      -19757.425      134.86232     -19533.09      -34.445101      100.26171     -19931.955      51.568666      80.066749      39.981618     -19997.771      0              174.53008     -76.830664     -19699.393     -19622.562    
    579000   579000         2156.4764      646.34646      49.000995     -121.88067     -19764.228      121.37807     -19671.819     -38.01529       100.48431     -19935.375      36.406112      88.562243      43.069399     -19997.844      0              171.14685     -57.384156     -19700.234     -19642.85     
    580000   580000         2121.189       703.27611      53.316962     -471.50429     -19748.748      132.06895     -19728.748     -37.066962      99.465728     -19935.898      53.483351      61.703089      66.609957     -19998.297      0              187.15072     -82.873417     -19699.552     -19616.679    
    581000   581000         2132.8974      687.87123      52.149083     -659.11911     -19735.731      129.17605     -19763.218     -39.760808      97.94401      -19939.159      70.484878      79.758508      48.612922     -19997.343      0              203.42836     -92.54523      -19699.1       -19606.555    
    582000   582000         2119.7503      772.77708      58.585988     -107.40754     -19772.989      145.12061     -19653.398     -36.278776      99.003191     -19936.15       63.178762      67.61225       30.464128     -19998.875      0              163.16087     -72.400002     -19700.269     -19627.869    
    583000   583000         2107.136       705.40548      53.478394     -1589.1187     -19766.979      132.46882     -20012.22      -37.253794      97.326661     -19936.646      60.788723      71.813612      34.883589     -19996.719      0              169.66709     -65.470034     -19699.98      -19634.51     
    584000   584000         2096.2876      656.25871      49.752466     -739.92528     -19749.141      123.2395      -19801.771     -38.685657      94.308321     -19940.941      61.190164      88.369864      39.276444     -19996.564      0              191.80012     -73.906249     -19699.808     -19625.902    
    585000   585000         2072.9101      663.63617      50.311767     -602.45573     -19774.672      124.62492     -19793.242     -35.509831      96.64067      -19935.484      55.277423      71.936259      31.581775     -19996.614      0              160.81162     -50.234156     -19700.281     -19650.047    
    586000   586000         2108.4112      723.19886      54.82735      -449.47578     -19764.155      135.81026     -19735.178     -36.553779      96.479835     -19938.019      44.897602      92.416293      33.653187     -19997.945      0              173.86484     -71.984546     -19700.329     -19628.344    
    587000   587000         2100.8104      648.91306      49.195575      254.64303     -19752.772      121.86005     -19570.387     -25.446542      96.753894     -19924.973      59.775901      74.802757      34.822672     -19996.281      0              172.20172     -69.313572     -19700.225     -19630.911    
    588000   588000         2101.0199      658.00341      49.884735     -804.02294     -19757.212      123.56714     -19824.749     -40.397729      97.06343      -19941.654      63.943239      72.600134      43.503138     -19998.32       0              184.44204     -65.784886     -19699.43      -19633.645    
    589000   589000         2155.7389      698.81196      52.978524     -450.39864     -19774.465      131.23062     -19750.288     -36.786528      100.33461     -19935.2        50.949919      73.568741      33.627066     -19998.748      0              160.73428     -56.798527     -19700.033     -19643.235    
    590000   590000         2192.3999      646.99819      49.050404     -274.83887     -19774.091      121.50046     -19717.916     -37.236749      100.70503     -19935.515      51.090383      81.762293      26.429213     -19998.983      0              161.42372     -47.16157      -19699.752     -19652.591    
    591000   591000         2198.9083      796.02408      60.348396     -144.99695     -19738.744      149.48618     -19623.722     -24.991088      97.800022     -19924.077      64.389875      63.968265      52.397001     -19996.886      0              185.33251     -110.29839     -19699.557     -19589.258    
    592000   592000         2108.8239      656.88466      49.79992      -442.80234     -19758.687      123.35705     -19740.578     -30.060894      95.346725     -19931.986      53.971445      69.29841       47.00402      -19997.272      0              173.29894     -64.140076     -19699.47      -19635.33     
    593000   593000         2182.5149      649.16756      49.214869     -292.50969     -19777.62       121.90785     -19725.237     -32.567703      98.707133     -19930.686      38.778121      73.745064      37.453557     -19996.826      0              153.06641     -44.130148     -19699.842     -19655.712    
    594000   594000         2148.3657      639.47415      48.47999       919.64745     -19747.322      120.08751     -19408.648     -34.254532      101.23064     -19930.592      54.723891      66.893295      56.881915     -19997.568      0              183.27012     -72.128984     -19699.364     -19627.235    
    595000   595000         2075.31        574.86379      43.581731     -457.51117     -19763.367      107.95426     -19764.157     -38.95745       99.519241     -19936.484      48.966866      83.977535      37.183997     -19997.046      0              173.11656     -43.848539     -19699.262     -19655.413    
    596000   596000         2120.2766      757.49995      57.427794     -976.09719     -19771.889      142.2517      -19861.641     -42.544999      101.84524     -19938.741      51.249979      57.694257      53.347498     -19998.041      0              166.85235     -70.071077     -19699.708     -19629.637    
    597000   597000         2085.9612      722.23324      54.754144     -398.38995     -19776.95       135.62893     -19736.013     -32.977823      98.142195     -19932.062      46.134421      70.595742      35.354893     -19997.227      0              155.11215     -59.212055     -19700.533     -19641.321    
    598000   598000         1994.8964      665.44523      50.448916     -270.84753     -19781.726      124.96465     -19721.137     -36.622259      96.904215     -19935.918      55.887934      63.679149      32.165684     -19996.2        0              154.19255     -43.56011      -19700.321     -19656.761    
    599000   599000         2125.7563      841.53575      63.798739     -640.71599     -19772.581      158.03287     -19766.836     -38.209121      98.460331     -19936.949      49.525458      66.809595      44.854667     -19997.2        0              164.36817     -85.35676      -19699.904     -19614.548    
    600000   600000         2175.6718      879.70964      66.692788     -164.19919     -19766.025      165.20158     -19639.851     -37.141091      101.73199     -19933.384      50.757458      68.792051      44.270455     -19997.974      0              167.35875     -98.80368      -19699.627     -19600.823    
    601000   601000         2112.8748      676.44527      51.282854     -276.24716     -19778.369      127.03036     -19716.998     -31.135183      97.412489     -19930.588      55.299592      62.797825      31.699031     -19996.865      0              152.21874     -48.564836     -19699.903     -19651.338    
    602000   602000         2143.1286      796.81539      60.408387     -417.38852     -19760.003      149.63478     -19709.575     -23.433675      94.809634     -19925.941      50.64661       69.95137       42.204283     -19997.317      0              165.93791     -89.563969     -19699.932     -19610.368    
    603000   603000         2140.2373      775.57561      58.798151     -584.59606     -19784.842      145.64615     -19778.146     -36.972028      94.903115     -19938.187      43.08917       73.231657      34.07951      -19996.118      0              153.3449      -60.858635     -19700.055     -19639.196    
    604000   604000         2202.8454      532.41883      40.363882     -37.279012     -19775.933      99.983482     -19684.81      -34.845917      98.538407     -19935.809      47.997809      74.180323      35.2225       -19999.501      0              159.8759      -24.216632     -19700.166     -19675.949    
    605000   605000         2167.1727      772.46328      58.562199     -634.65926     -19769.414      145.06168     -19775.201     -37.237598      95.875576     -19939.549      58.683955      72.073254      36.419374     -19998.187      0              170.1356      -75.087066     -19699.439     -19624.352    
    606000   606000         2203.2862      638.99366      48.443563      158.74838     -19770.059      119.99728     -19612.329     -37.445859      97.420331     -19938.945      54.62665       76.367768      34.722259     -19998.92       0              168.88659     -49.788479     -19699.85      -19650.061    
    607000   607000         2175.5431      621.64933      47.12865      -569.09145     -19781.74       116.74017     -19800.264     -36.47327       100.39741     -19935.643      44.535812      74.748576      32.278335     -19999.567      0              153.90359     -35.214108     -19700.214     -19664.999    
    608000   608000         2220.5796      726.36917      55.067699     -912.60477     -19778.437      136.40562     -19858.944     -38.183616      100.12165     -19936.644      57.035423      70.314501      28.722723     -19998.582      0              158.20689     -58.117801     -19700.149     -19642.031    
    609000   609000         2207.6693      783.41587      59.392539     -359.16738     -19773.985      147.11848     -19712.235     -40.118147      100.09208     -19938.154      50.445753      70.16815       41.027138     -19998.128      0              164.16911     -72.826528     -19699.693     -19626.867    
    610000   610000         2100.7341      793.85891      60.18425      -12.734547     -19774.431      149.07959     -19628.378     -38.317035      98.81307      -19935.531      52.39186       64.050159      40.648839     -19996.027      0              161.10041     -74.896595     -19700.248     -19625.351    
    611000   611000         1982.1833      695.9845       52.764168     -1210.7511     -19788.195      130.69965     -19945.273     -38.618145      100.91567     -19935.293      46.146481      71.784018      27.427776     -19997.591      0              147.09875     -42.592412     -19700.087     -19657.495    
    612000   612000         2070.0371      843.15862      63.921772     -953.89059     -19755.791      158.33763     -19824.179     -40.187046      97.411768     -19941.214      83.775966      65.620522      33.286157     -19998.439      0              185.42327     -101.76828     -19699.221     -19597.453    
    613000   613000         2188.1466      709.49601      53.788506     -1732.5198     -19759.52       133.23699     -20038.078     -40.904821      96.670305     -19940.481      85.59591       63.040911      30.032303     -19996.247      0              180.96074     -73.729638     -19700.013     -19626.283    
    614000   614000         2174.701       647.64681      49.099578     -275.84039     -19778.608      121.62226     -19722.549     -36.678318      99.419063     -19933.865      53.143266      68.776816      30.338211     -19996.606      0              155.25721     -42.871662     -19699.858     -19656.986    
    615000   615000         2144.7013      692.13368      52.472228     -199.98123     -19775.626      129.9765      -19693.182     -37.058402      99.80608      -19933.772      44.639809      77.227691      33.710005     -19996.52       0              158.14674     -54.704891     -19700.354     -19645.649    
    616000   616000         2117.3418      826.7166       62.675265     -104.46652     -19778.895      155.24996     -19648.475     -37.299428      98.127056     -19936.609      49.759027      77.114995      28.657536     -19997.436      0              157.71394     -76.574533     -19700.219     -19623.645    
    617000   617000         2125.8641      734.16694      55.658866      225.71256     -19741.094      137.86997     -19549.575     -34.055701      99.156071     -19932.882      63.672104      84.347873      40.483646     -19997.982      0              191.78846     -95.798865     -19699.023     -19603.224    
    618000   618000         2073.2278      645.45328      48.933281     -919.18189     -19771.444      121.21034     -19868.709     -41.142971      96.330082     -19941.303      57.844214      80.168146      29.924142     -19996.49       0              169.85913     -50.03254      -19700.266     -19650.233    
    619000   619000         2035.716       834.41292      63.258741     -650.01546     -19748.388      156.69526     -19746.191     -32.115327      97.549389     -19931.927      71.022372      76.859353      33.374502     -19997.361      0              183.53917     -107.31338     -19699.006     -19591.692    
    620000   620000         2082.7334      823.13066      62.403408     -93.176108     -19771.381      154.57656     -19638.951     -28.442554      98.121929     -19929.012      47.435819      63.897016      42.642057     -19998.691      0              157.63107     -83.498245     -19700.303     -19616.804    
    621000   621000         2085.3273      710.58969      53.87142      -125.76058     -19776.514      133.44237     -19672.964     -36.565675      97.604594     -19936.275      52.070145      71.333004      34.060324     -19997.314      0              159.76049     -57.221179     -19700.293     -19643.072    
    622000   622000         2208.2298      863.72796      65.481181     -732.4493      -19741.393      162.20037     -19753.285     -32.806737      97.674332     -19932.478      66.101966      81.177947      40.364889     -19997.346      0              191.08531     -120.3701      -19699.563     -19579.193    
    623000   623000         2210.021       603.71846      45.769269     -542.01076     -19768.638      113.37291     -19784.093     -39.170159      99.055383     -19938.288      63.212005      74.306872      29.849634     -19998.173      0              169.64993     -44.860823     -19700.126     -19655.265    
    624000   624000         2144.5632      604.94981      45.862621     -1505.803      -19777.094      113.60415     -20021.397     -46.119542      99.671137     -19944.147      65.322577      76.090894      23.59995      -19997.699      0              167.05319     -36.55355      -19700.043     -19663.49     
    625000   625000         2208.7437      609.60172      46.215293     -637.21618     -19759.604      114.47774     -19796.583     -35.018116      98.751071     -19932.939      56.377066      78.76428       35.592057     -19996.672      0              173.33542     -55.001002     -19700.127     -19645.126    
    626000   626000         2182.3077      724.19017      54.902504     -884.29771     -19761.894      135.99642     -19836.082     -42.031639      98.075926     -19940.979      62.977241      74.373457      39.669065     -19997.023      0              179.08505     -73.690906     -19699.589     -19625.898    
    627000   627000         2138.1672      797.60491      60.468242     -1018.1472     -19772.355      149.78305     -19864.57      -34.752779      97.808203     -19933.627      61.100811      61.900553      35.400642     -19996.682      0              161.27225     -77.226553     -19699.798     -19622.572    
    628000   628000         2089.4225      674.92321      51.167464     -797.33004     -19767.683      126.74453     -19830.452     -39.81534       97.240344     -19940.097      60.22028       74.484404      34.405155     -19997.522      0              172.41417     -59.122825     -19700.061     -19640.938    
    629000   629000         2191.1968      654.83189      49.644295     -886.4626      -19770.708      122.97156     -19858.436     -37.925163      97.652121     -19937.005      58.087863      70.965655      34.928496     -19996.732      0              166.29689     -52.416422     -19700.153     -19647.737    
    630000   630000         2149.424       772.44996      58.561188     -1191.6097     -19777.592      145.05918     -19915.761     -38.67173       99.080304     -19936.919      64.562601      68.852491      24.202164     -19997.328      0              159.32668     -67.979948     -19700.513     -19632.533    
    631000   631000         2186.987       668.81151      50.704122     -1504.427      -19773.433      125.5968      -20005.417     -44.154494      102.108       -19939.029      61.777968      73.156103      28.746841     -19996.982      0              165.59534     -51.914988     -19699.751     -19647.836    
    632000   632000         2136.6823      625.6157       47.429349     -621.91037     -19773.029      117.48502     -19803.363     -34.448755      97.965987     -19933.143      46.703161      83.700132      27.585387     -19996.66       0              160.11456     -44.521335     -19700.065     -19655.544    
    633000   633000         2158.8072      741.29653      56.199376     -1281.1212     -19774.696      139.20884     -19939.991     -44.068885      101.00719     -19940.181      60.455596      71.759624      30.779848     -19997.119      0              165.48463     -64.669346     -19700.157     -19635.487    
    634000   634000         2170.4913      587.95857      44.574477      152.01281     -19774.714      110.41335     -19628.169     -34.443979      98.448174     -19932.687      41.759648      76.132208      37.67562      -19996.691      0              157.97307     -36.449472     -19700.75      -19664.3      
    635000   635000         2177.7729      660.44787      50.070055     -94.173111     -19777.165      124.02619     -19675.522     -37.251092      99.61307      -19935.118      36.379729      84.66525       34.32742      -19997.48       0              157.95342     -47.019039     -19700.158     -19653.139    
    636000   636000         2091.2539      722.23344      54.75416      -847.45217     -19751.211      135.62896     -19817.009     -35.43259       97.588159     -19934.496      56.598544      81.136479      43.215407     -19996.651      0              183.28522     -84.295746     -19699.877     -19615.582    
    637000   637000         2134.8046      723.88294      54.879212     -370.52846     -19790.682      135.93873     -19742.812     -33.995795      97.016072     -19933.113      38.00108       72.252888      30.352076     -19996.133      0              142.43091     -45.873445     -19700.617     -19654.743    
    638000   638000         2184.7319      660.69037      50.08844      -632.20026     -19752.454      124.07173     -19778.647     -38.95278       96.491998     -19939.317      70.343604      73.361984      39.830417     -19996.856      0              186.86249     -71.631978     -19700.015     -19628.383    
    639000   639000         2160.1635      719.06083      54.513637     -246.30456     -19772.757      135.03318     -19696.266     -37.48832       96.896612     -19937.734      54.801112      77.755739      29.90459      -19997.142      0              164.9774      -62.877647     -19700.601     -19637.723    
    640000   640000         2229.7436      813.13486      61.645603      16.943199     -19767.003      152.69943     -19610.276     -30.20452       100.41156     -19925.836      43.125331      75.933937      36.657992     -19996.043      0              158.8335      -86.196424     -19700.5       -19614.303    
    641000   641000         2220.1616      650.35631      49.304991      1008.7931     -19774.445      122.13108     -19412.539     -21.889567      95.803654     -19923.403      49.956613      63.976151      32.685932     -19997.317      0              148.9577      -48.476984     -19700.791     -19652.314    
    642000   642000         2171.2154      689.23781      52.252686     -440.86959     -19758.921      129.43268     -19734.277     -32.824327      97.088148     -19933.116      53.456665      75.32021       42.510961     -19997.38       0              174.19484     -70.209537     -19699.698     -19629.488    
    643000   643000         2199.0768      640.77842      48.57887      -284.9835      -19789.585      120.33244     -19736.989     -39.184845      100.76328     -19937.35       40.34075       72.278327      32.404184     -19998.928      0              147.76463     -31.568546     -19700.821     -19669.253    
    644000   644000         2098.3825      774.04564      58.68216      -101.91676     -19768.552      145.35883     -19647.417     -32.363351      97.115717     -19932.672      56.695048      68.054002      36.983924     -19997.424      0              164.1201      -76.83712      -19700.03      -19623.193    
    645000   645000         2206.6262      551.61033      41.818834     -518.05783     -19771.458      103.58747     -19791.005     -39.546135      97.513832     -19939.27       73.014911      58.540358      33.167433     -19997.237      0              167.81202     -32.081291     -19699.952     -19667.87     
    646000   646000         2116.0776      682.95624      51.776466     -921.53357     -19755.283      128.25306     -19846.065     -34.768944      98.272555     -19934.128      59.30893       76.494402      40.013685     -19997.631      0              178.84467     -73.468963     -19700.499     -19627.03     
    647000   647000         2161.9507      660.13946      50.046674     -558.55471     -19757.96       123.96827     -19766.752     -40.744065      101.18121     -19936.7        55.295096      79.44643       40.846633     -19997.138      0              178.74013     -66.304266     -19700.296     -19633.992    
    648000   648000         2123.3986      601.52501      45.602979     -1462.8569     -19768.219      112.961       -20002.958     -43.964115      98.895923     -19943.441      73.999833      72.484556      26.386797     -19998.373      0              175.22246     -44.619174     -19699.877     -19655.258    
    649000   649000         2223.1036      678.64726      51.449792     -210.10997     -19757.009      127.44387     -19679.506     -38.240453      96.488709     -19940.548      55.619341      84.045722      40.020725     -19998.796      0              183.53809     -70.665254     -19700.231     -19629.566    
    650000   650000         2243.3215      710.54701      53.868185     -1268.4642     -19744.214      133.43436     -19912.275     -40.211776      97.641952     -19940.07       70.402275      84.84922       37.543598     -19997.5        0              195.85598     -89.02381      -19699.803     -19610.78     
    651000   651000         2182.0895      766.56778      58.115247     -1371.1152     -19745.795      143.95456     -19927.734     -41.131483      97.706586     -19939.557      63.701623      78.673056      47.013222     -19996.132      0              193.76237     -98.354813     -19700.195     -19601.84     
    652000   652000         2103.9529      722.50477      54.77473      -861.65531     -19774.947      135.67992     -19844.07      -42.175874      97.707036     -19942.147      61.663026      81.01077       23.036456     -19997.678      0              167.1998      -60.321862     -19699.589     -19639.267    
    653000   653000         2148.3347      894.33757      67.801765     -249.58117     -19771.679      167.94858     -19663.052     -34.588867      99.639303     -19932.833      51.457276      68.638019      37.466639     -19997.883      0              161.15436     -96.390261     -19700.12      -19603.73     
    654000   654000         2189.296       624.6426       47.355576     -520.72458     -19751.312      117.30228     -19757.778     -37.692814      100.03915     -19935.56       73.354858      75.562505      32.781871     -19997.906      0              184.24814     -65.568022     -19699.578     -19634.01     
    655000   655000         2154.7602      619.07014      46.933116     -122.1745      -19763.098      116.25582     -19675.881     -35.850681      98.790891     -19935.496      56.621115      69.512754      42.919097     -19998.436      0              172.39783     -53.253912     -19700.096     -19646.842    
    656000   656000         2109.863       829.69468      62.901041     -78.474004     -19759.298      155.80922     -19622.141     -38.316005      100.16903     -19936.751      53.140145      77.585926      42.644431     -19998.604      0              177.45262     -96.808504     -19700.298     -19603.489    
    657000   657000         2145.1231      640.98593      48.594601     -416.71634     -19753.814      120.37141     -19732.49      -30.459673      97.117798     -19930.008      57.841187      80.641106      35.033646     -19996.666      0              176.19332     -66.547222     -19699.99      -19633.443    
    658000   658000         2156.4265      812.81737      61.621534      19.658468     -19759.927      152.63981     -19602.615     -35.25173       98.10757      -19936.985      62.41358       71.591454      40.234533     -19999.841      0              177.05809     -92.673538     -19699.961     -19607.287    
    659000   659000         2177.9822      591.58377      44.849311     -694.29935     -19736.003      111.09413     -19789.934     -29.982368      97.323564     -19929.896      66.538965      88.536107      35.801378     -19997.238      0              193.89322     -74.604457     -19699.514     -19624.909    
    660000   660000         2135.1648      583.4575       44.23324      -304.97221     -19789.17       109.56809     -19752.09      -36.194629      95.869365     -19939.864      58.106886      66.590622      23.922791     -19999.539      0              150.69374     -20.521042     -19700.123     -19679.602    
    661000   661000         2127.167       837.19567      63.469708     -747.85866     -19786.823      157.21784     -19807.36      -38.000765      97.330999     -19939.84       48.743021      64.316632      37.467931     -19999.17       0              153.01704     -71.316244     -19700.921     -19629.605    
    662000   662000         2179.6742      614.05227      46.552699     -747.29176     -19777.277      115.31351     -19839.584     -40.965681      97.798163     -19940.306      52.944472      74.258247      33.267909     -19997.138      0              163.02882     -38.108415     -19700.072     -19661.963    
    663000   663000         2229.7247      668.61195      50.688993      63.432598     -19769.223      125.55933     -19628.587     -37.002224      96.890966     -19937.741      48.537441      87.281085      30.573675     -19997.63       0              168.51811     -56.340786     -19700.005     -19643.664    
    664000   664000         2182.4123      691.25944      52.40595       230.09036     -19721.638      129.81232     -19537.137     -25.802421      97.084802     -19924.531      77.646244      91.604502      31.733795     -19995.814      0              202.89282     -106.66592     -19698.492     -19591.826    
    665000   665000         2155.1864      661.2999       50.134649     -421.46353     -19747.641      124.18619     -19723.63      -37.107717      100.04698     -19934.419      58.355201      87.366058      38.208017     -19997.359      0              186.77874     -76.105233     -19699.56      -19623.455    
    666000   666000         2138.0386      827.02115      62.698354     -337.60868     -19763.89       155.30716     -19688.827     -33.135101      97.973677     -19931.786      63.872975      69.928676      30.973469     -19996.624      0              167.89594     -91.227269     -19699.81      -19608.583    
    667000   667000         2163.9154      861.39597      65.304388      476.04036     -19789.535      161.76244     -19514.625     -33.408019      100.35194     -19931.809      34.221347      70.95866       34.662456     -19998.753      0              142.27392     -72.584116     -19700.357     -19627.773    
    668000   668000         2171.8538      681.18545      51.642218     -443.96235     -19762.082      127.92052     -19739.684     -30.837841      95.656839     -19932.471      54.822114      81.188954      31.521903     -19997.29       0              170.38953     -65.866507     -19700.028     -19634.161    
    669000   669000         2178.691       719.54216      54.550128      80.43588      -19741.943      135.12357     -19587.701     -36.435761      98.797459     -19935.745      80.725602      69.72142       40.803712     -19998.107      0              193.80236     -92.179452     -19698.998     -19606.819    
    670000   670000         2175.0176      715.59116      54.250593     -964.86284     -19771.346      134.3816      -19866.298     -38.306739      99.245437     -19937.125      66.181432      65.531567      31.125278     -19998.064      0              165.77958     -62.80367      -19699.768     -19636.964    
    671000   671000         2173.1203      674.8136       51.159154     -449.63249     -19771.279      126.72394     -19751.426     -36.931918      96.277516     -19938.77       64.569103      68.193632      32.759596     -19998.116      0              167.4914      -55.230824     -19699.786     -19644.555    
    672000   672000         2161.3417      692.02545      52.464023     -161.36974     -19767.174      129.95617     -19675.573     -38.793213      99.456452     -19938.077      66.572206      72.370887      29.743522     -19998.74       0              170.90275     -62.606885     -19699.825     -19637.218    
    673000   673000         2203.5586      765.42864      58.028886      10.497146     -19764.795      143.74063     -19618.56      -31.931001      98.808655     -19929.938      48.4178        78.899233      35.040814     -19996.816      0              165.14299     -78.717122     -19699.772     -19621.055    
    674000   674000         2198.4737      727.30098      55.138342     -659.6212      -19769.993      136.5806      -19790.195     -40.16841       100.88826     -19937.807      54.922689      63.49198       46.230883     -19998.526      0              167.81317     -66.512114     -19699.925     -19633.413    
    675000   675000         2126.6113      778.93752      59.053025      15.610544     -19764.487      146.27748     -19614.499     -34.40549       98.65459      -19933.641      55.436518      74.304896      36.352509     -19997.89       0              169.15383     -81.612935     -19699.822     -19618.21     
    676000   676000         2069.5941      821.0449       62.245281     -126.8682      -19761.476      154.18487     -19637.446     -30.596559      97.433893     -19930.777      55.235416      69.360737      41.983027     -19997.614      0              169.3008      -92.728262     -19700.02      -19607.291    
    677000   677000         2079.6571      705.32558      53.472337     -1196.4921     -19768.85       132.45382     -19920.785     -41.021991      97.83866      -19940.712      60.316903      75.830611      33.338949     -19997.529      0              171.86212     -63.373516     -19699.77      -19636.396    
    678000   678000         2123.6083      532.60735      40.378175     -601.09322     -19778.151      100.01888     -19821.003     -34.829183      97.950629     -19935.439      50.544837      71.900263      33.150863     -19998.561      0              157.28856     -21.752677     -19699.885     -19678.132    
    679000   679000         2086.7217      775.6103       58.800781      48.060676     -19756.367      145.65266     -19599.291     -32.905751      94.351958     -19933.486      64.420673      76.5925        32.939112     -19994.932      0              177.11891     -88.900714     -19699.615     -19610.715    
    680000   680000         2102.5532      676.23212      51.266695     -1758.4099     -19777.641      126.99033     -20068.599     -42.248455      99.078668     -19941.941      58.372797      84.113281      20.481309     -19998.771      0              164.29932     -49.649481     -19700.3       -19650.651    
    681000   681000         2151.6907      776.87251      58.896472     -597.92721     -19767.36       145.88969     -19763.589     -41.992226      100.84995     -19940.679      73.296233      64.722142      33.658463     -19999.537      0              173.31909     -78.006994     -19699.478     -19621.471    
    682000   682000         2153.2751      651.25849      49.373387     -487.89541     -19784.72       122.3005      -19778.385     -36.793989      98.816752     -19935.695      40.155486      86.295793      23.091337     -19997.718      0              150.97484     -37.732066     -19700.151     -19662.419    
    683000   683000         2085.6854      678.4212       51.432655      33.196581     -19776.705      127.40142     -19641.414     -38.471712      101.1835      -19934.723      41.359617      79.273737      34.215749     -19997.435      0              158.01754     -50.532707     -19699.837     -19649.304    
    684000   684000         2047.1653      713.28157      54.075498     -855.66332     -19752.684      133.94788     -19822.114     -30.690563      97.797941     -19931.63       57.586206      76.969112      40.359076     -19998.737      0              178.94605     -80.08552      -19698.821     -19618.736    
    685000   685000         2104.4523      835.53378      63.343716     -306.3442      -19794.856      156.90575     -19710.764     -41.081257      97.3352       -19940.632      54.707159      61.020784      27.941385     -19996.885      0              145.77542     -61.624328     -19699.575     -19637.95     
    686000   686000         2162.6114      683.70292      51.833073     -1807.7263     -19762.246      128.39328     -20063.523     -37.008463      96.788215     -19937.101      66.084998      68.875469      37.391134     -19996.881      0              174.85535     -65.826939     -19699.68      -19633.853    
    687000   687000         2125.5432      613.18611      46.487034      354.65166     -19775.885      115.15085     -19576.439     -32.0975        97.926764     -19931.619      46.240248      67.446083      39.364838     -19997.449      0              155.73411     -38.929014     -19699.663     -19660.734    
    688000   688000         2130.2202      640.86733      48.58561       46.816867     -19782.42       120.34914     -19650.943     -40.409421      102.46636     -19934.623      34.756608      78.122097      36.040041     -19996.68       0              152.20317     -37.957542     -19700.028     -19662.071    
    689000   689000         2126.7499      670.20623      50.809859      31.858772     -19747.794      125.85872     -19614.363     -32.849816      100.83859     -19929.619      59.049051      80.410782      38.613652     -19997.608      0              181.82512     -77.092398     -19699.028     -19621.935    
    690000   690000         2114.8958      656.34103      49.758706      739.87362     -19758.893      123.25496     -19459.781     -28.356543      96.936446     -19927.447      49.512121      76.755052      38.575966     -19996.027      0              168.55362     -63.429365     -19699.068     -19635.638    
    691000   691000         2090.6514      735.84038      55.785733     -1178.7278     -19791.438      138.18423     -19933.42      -45.781942      103.60664     -19939.705      46.077705      70.295895      29.193301     -19997.53       0              148.26741     -47.114105     -19700.368     -19653.254    
    692000   692000         2113.8621      720.06579      54.589825      271.07406     -19743.508      135.2219      -19543.855     -40.407054      98.746638     -19939.737      90.570717      63.468229      38.506905     -19998.077      0              196.22932     -90.619673     -19698.905     -19608.286    
    693000   693000         2178.3183      709.37803      53.779562     -255.16962     -19762.14       133.21483     -19689.575     -35.015046      99.013138     -19933.729      61.815039      76.45485       30.031888     -19997.727      0              171.58847     -70.484356     -19699.41      -19628.925    
    694000   694000         2204.2318      606.40522      45.972959     -314.65328     -19772.851      113.87746     -19733.762     -40.780983      97.974892     -19940.026      57.159506      59.584912      47.059479     -19997.219      0              167.17503     -40.497785     -19699.471     -19658.973    
    695000   695000         2092.0293      664.36622      50.367114     -218.7201      -19780.152      124.76202     -19707.376     -41.207855      98.271539     -19940.631      46.979579      67.76285       42.510369     -19997.694      0              160.47916     -44.488825     -19699.878     -19655.39     
    696000   696000         2076.6536      718.05962      54.437733     -279.55749     -19775.209      134.84516     -19706.81      -35.481065      91.279859     -19941.727      50.038457      56.413047      55.660472     -19997.526      0              166.51828     -59.440615     -19699.804     -19640.364    
    697000   697000         2142.0428      717.20995      54.373318     -180.35156     -19777.621      134.6856      -19685.802     -36.021655      98.26146      -19936.144      54.27777       68.098652      33.642287     -19998.383      0              158.52275     -56.845964     -19699.781     -19642.935    
    698000   698000         2155.0455      615.01832      46.625938     -1162.7076     -19768.767      115.49493     -19929.63      -37.268504      98.827155     -19936.424      52.368829      65.856192      45.898416     -19997.982      0              167.6567      -46.229648     -19699.502     -19653.272    
    699000   699000         2153.6313      734.88589      55.713371     -25.815474     -19768.673      138.00498     -19636.804     -26.197419      94.242608     -19929.223      61.183524      63.616686      33.983169     -19997.268      0              160.54967     -68.865018     -19699.533     -19630.668    
    700000   700000         2105.2693      573.16035      43.45259      -394.45589     -19772.807      107.63437     -19758.929     -26.09081       96.361827     -19926.586      44.446972      72.043068      34.806928     -19996.857      0              153.77937     -34.315022     -19699.488     -19665.173    
    701000   701000         2154.4988      820.5889       62.210711      877.38135     -19777.808      154.09924     -19415.168     -35.487739      97.578036     -19935.269      44.345061      68.212723      40.952403     -19997.359      0              157.46059     -75.801034     -19699.51      -19623.709    
    702000   702000         2164.9812      654.37254      49.60947      -756.70561     -19770.767      122.88529     -19827.739     -39.435563      101.54175     -19936.19       61.810159      72.502393      28.880075     -19998.296      0              165.42334     -51.386831     -19699.268     -19647.881    
    703000   703000         2134.6192      668.99062      50.7177       -313.2689      -19772.157      125.63044     -19720.986     -36.529937      101.32379     -19934.734      46.166429      74.754973      38.812237     -19999.528      0              162.57672     -53.075406     -19699.602     -19646.527    
    704000   704000         2141.9816      713.34655      54.080424     -306.62772     -19751.352      133.96009     -19690.273     -37.662012      95.874674     -19937.791      66.107355      73.267262      43.948734     -19996.004      0              186.43945     -81.41146      -19698.803     -19617.392    
    705000   705000         2146.436       817.7002       61.991712     -457.18584     -19755.517      153.55676     -19710.627     -41.102432      100.35922     -19937.901      72.585061      72.127484      34.976502     -19997.157      0              182.3834      -97.043145     -19699.004     -19601.96     
    706000   706000         2165.7018      720.75254      54.64189      -1.4293671     -19783.004      135.35086     -19647.992     -38.609342      99.880398     -19937.641      49.384445      68.594278      33.375315     -19998.912      0              154.63709     -51.913813     -19699.567     -19647.653    
    707000   707000         2101.2541      667.23039      50.584254     -828.2212      -19781.355      125.29989     -19852.911     -42.030563      100.37335     -19939.846      46.132059      75.304653      34.152553     -19998.189      0              158.49157     -43.459358     -19699.514     -19656.055    
    708000   708000         2082.6641      563.98116      42.756695     -923.37768     -19769.03       105.91061     -19882.593     -31.679862      98.940183     -19931.453      46.981984      75.526897      37.428311     -19998.714      0              162.42317     -36.137017     -19699.257     -19663.12     
    709000   709000         2154.7114      697.6703       52.891972     -65.789792     -19757.271      131.01623     -19641.892     -33.431912      98.947148     -19933.212      56.317136      72.193606      44.443896     -19998.727      0              175.9406      -73.180806     -19699.436     -19626.255    
    710000   710000         2167.753       632.94776      47.985209     -1121.464      -19757.735      118.86191     -19905.428     -43.138492      98.070172     -19943.162      59.266466      86.086937      37.374217     -19998.094      0              185.42751     -59.756001     -19698.629     -19638.873    
    711000   711000         2121.4071      615.10915      46.632823     -1185.3456     -19788.599      115.51198     -19954.826     -39.125314      95.860687     -19941.373      51.967543      64.303309      33.845286     -19998.108      0              152.77375     -26.475143     -19699.562     -19673.087    
    712000   712000         2135.0012      727.98107      55.1899       -685.13882     -19758.283      136.70832     -19784.422     -33.319944      94.313222     -19937.053      54.56045       76.51481       45.643626     -19998.046      0              178.76929     -77.642986     -19699.218     -19621.575    
    713000   713000         2040.068       673.68147      51.073324     -732.38808     -19779.528      126.51134     -19827.094     -40.269113      100.29916     -19937.45       39.372934      69.538505      45.247828     -19997.48       0              157.92197     -46.407976     -19699.424     -19653.016    
    714000   714000         2087.5103      736.85751      55.862844      264.35096     -19796.397      138.37523     -19595.189     -29.579851      98.066076     -19929.455      40.779237      62.265906      27.836296     -19997.941      0              133.05793     -42.142998     -19700.164     -19658.021    
    715000   715000         2134.8861      729.53733      55.307884     -476.51337     -19761.472      137.00057     -19737.731     -32.705988      95.418213     -19935.13       52.640224      63.087476      54.187343     -19997.842      0              173.65834     -74.822091     -19699.293     -19624.471    
    716000   716000         2053.2134      638.80189      48.429024      71.579165     -19779.57       119.96127     -19642.595     -37.104227      98.592037     -19935.248      45.446009      60.876897      45.723046     -19996.735      0              155.67786     -39.797989     -19699.406     -19659.608    
    717000   717000         2098.4151      690.02366      52.312263     -227.57148     -19760.337      129.58026     -19684.847     -32.421778      96.586249     -19932.411      49.245796      79.716002      39.486625     -19996.575      0              172.07359     -68.350232     -19699.107     -19630.757    
    718000   718000         2090.6773      613.0879       46.479588     -1356.1091     -19770.86       115.13241     -19978.055     -34.53235       100.061       -19931.296      45.464642      68.904239      42.741077     -19996.825      0              160.4363      -43.52658      -19699.254     -19655.728    
    719000   719000         2111.8166      731.21036      55.43472      -1511.7244     -19755.422      137.31475     -19977.422     -45.407818      97.025796     -19947.336      81.090303      68.040405      39.665103     -19998.954      0              191.91409     -80.314951     -19698.422     -19618.107    
    720000   720000         2127.0807      791.19168      59.982041     -105.70944     -19779.287      148.5787      -19655.834     -37.759699      97.038718     -19938.971      54.417445      60.505237      41.872195     -19998.25       0              159.68358     -68.80067      -19699.509     -19630.709    
    721000   721000         2133.2521      574.98843      43.59118      -1201.2354     -19785.616      107.97767     -19963.154     -41.209552      97.533586     -19941.841      55.07509       65.651039      32.870587     -19998.165      0              156.22538     -21.939718     -19699.578     -19677.638    
    722000   722000         2147.7444      786.33896      59.614145     -370.03152     -19785.162      147.66741     -19725.446     -38.122295      98.37356      -19937.834      43.657773      66.560355      38.726809     -19998.086      0              152.67203     -62.358465     -19699.853     -19637.495    
    723000   723000         2172.1578      653.94177      49.576813     -434.2849      -19741.591      122.8044      -19722.01      -35.234196      96.70285      -19934.729      82.136673      70.545194      37.133137     -19996.197      0              193.13777     -79.607981     -19698.395     -19618.787    
    724000   724000         2117.7539      699.9239       53.062823     -1205.8381     -19773.855      131.43943     -19929.025     -41.899295      99.806003     -19940.601      61.271544      68.905366      33.963332     -19998.507      0              166.74579     -57.484103     -19699.899     -19642.415    
    725000   725000         2116.0643      678.88362      51.467712     -1651.0614     -19753.911      127.48826     -20018.856     -42.056242      97.387592     -19943.011      78.2313        61.467767      46.042266     -19998.342      0              189.10012     -72.085861     -19698.508     -19626.423    
    726000   726000         2205.7099      692.34791      52.48847      -1401.3664     -19784.633      130.01673     -19987.7       -47.268077      100.00285     -19944.783      54.968539      68.36347       33.828729     -19997.517      0              160.15012     -45.31604      -19699.932     -19654.616    
    727000   727000         2106.7911      659.07691      49.966119     -626.88747     -19740.997      123.76873     -19766.23      -43.367391      100.97921     -19940.624      52.702216      97.044428      46.523298     -19998.236      0              199.62756     -81.998454     -19699.226     -19617.228    
    728000   728000         2169.9505      588.20321      44.593023     -1026.7177     -19774.189      110.45929     -19907.766     -44.28785       97.615214     -19945.991      66.216118      70.701859      31.96885      -19999.319      0              171.80169     -35.571428     -19699.302     -19663.73     
    729000   729000         2193.9582      768.89733      58.291855     -688.57835     -19762.99       144.39202     -19782.263     -43.632456      98.029544     -19943.657      54.735434      82.679807      39.959654     -19998.054      0              180.66755     -80.594383     -19699.192     -19618.598    
    730000   730000         2155.7868      716.80103      54.342317     -694.22128     -19780.649      134.60881     -19811.047     -47.580583      99.188133     -19947.381      53.687072      61.795798      47.66815      -19998.988      0              166.73175     -53.184544     -19699.225     -19646.04     
    731000   731000         2182.5288      732.90663      55.563318     -987.45255     -19745.402      137.63329     -19842.471     -39.515954      98.834334     -19938.23       82.380101      69.405981      38.74327      -19997.549      0              192.8288      -90.829958     -19698.598     -19607.768    
    732000   732000         2150.1905      637.62278      48.339633     -485.59986     -19758.605      119.73984     -19754.285     -37.74887       98.501459     -19936.819      58.570693      73.546777      43.730618     -19997.572      0              178.21442     -60.411099     -19699.276     -19638.865    
    733000   733000         2170.6797      808.69645      61.309117     -936.1994      -19774.608      151.86594     -19845.263     -43.256441      99.829679     -19942.119      57.759546      70.480657      36.125824     -19998.692      0              167.51047     -76.238059     -19698.981     -19622.743    
    734000   734000         2172.7875      747.58504      56.676122     -431.01107     -19760.401      140.38977     -19722.456     -35.493365      98.92368      -19933.436      60.215233      79.556305      30.830504     -19996.866      0              173.0351      -78.88712      -19698.898     -19620.011    
    735000   735000         2199.2412      836.48565      63.415879     -244.13905     -19758.67       157.0845      -19659.614     -44.871629      98.997038     -19945.186      62.984877      86.349313      34.123008     -19999.312      0              186.51629     -97.482521     -19699.068     -19601.586    
    736000   736000         2164.4506      731.9985       55.494471     -906.74039     -19756.087      137.46275     -19834.143     -42.323744      98.811279     -19942.524      74.438165      74.436939      34.91548      -19999.011      0              186.43633     -80.49765      -19699.122     -19618.624    
    737000   737000         2164.9211      682.89395      51.771743     -554.71479     -19764.695      128.24136     -19768.301     -30.531396      98.700813     -19930.394      64.568967      68.233328      30.711066     -19998.564      0              165.69969     -63.324088     -19699.777     -19636.453    
    738000   738000         2179.211       652.00015      49.429614     -562.67571     -19779.585      122.43978     -19790.885     -42.852705      97.970827     -19943.806      60.402702      66.154725      34.236782     -19998.924      0              164.22124     -42.647889     -19699.793     -19657.145    
    739000   739000         2193.4397      631.79154      47.897553     -625.7608      -19753.481      118.64479     -19783.571     -35.076663      95.674701     -19939.115      73.076817      73.737338      35.945678     -19999.713      0              185.63402     -64.166132     -19699.003     -19634.837    
    740000   740000         2155.7796      652.66263      49.479838     -468.37802     -19785.904      122.56419     -19774.667     -33.882098      102.50836     -19931.254      39.02593       73.859142      30.184621     -19999.88       0              145.34925     -36.784912     -19700.125     -19663.34     
    741000   741000         2186.6841      755.118        57.247213      213.5472      -19755.377      141.80439     -19562.816     -34.542652      97.859895     -19935.967      56.750699      91.171073      30.033523     -19999.284      0              180.59002     -85.629509     -19699.202     -19613.573    
    742000   742000         2168.0823      638.81263      48.429838     -902.42734     -19798.637      119.96328     -19893.167     -38.18485       100.5081      -19936.07       49.448683      64.34622       21.76629      -19998.393      0              137.43356     -21.440595     -19700.114     -19678.673    
    743000   743000         2218.4582      809.70449      61.385539     -551.64652     -19780.6        152.05524     -19759.663     -35.752351      99.174288     -19934.252      51.288925      64.158781      35.67985      -19997.674      0              153.65269     -71.109944     -19699.654     -19628.545    
    744000   744000         2218.5264      734.79266      55.706303     -519.70547     -19780.508      137.98747     -19766.047     -42.127347      97.893685     -19943.11       45.489669      75.107105      39.544374     -19998.877      0              162.60178     -56.661893     -19699.183     -19642.521    
    745000   745000         2161.3527      747.00643      56.632257      481.38128     -19742.12       140.28111     -19487.421     -34.293235      96.835859     -19936.345      67.190984      78.150474      44.811286     -19998.887      0              194.22491     -96.682444     -19698.521     -19601.839    
    746000   746000         2168.1528      836.4465       63.412912     -478.09216     -19778.243      157.07715     -19734.802     -38.401309      97.774734     -19937.647      54.881887      63.583333      38.004655     -19997.02       0              159.40319     -78.505795     -19699.672     -19621.166    
    747000   747000         2153.8519      785.85827      59.577703     -396.69624     -19775.729      147.57714     -19722.441     -41.704033      99.90153      -19940.772      45.97676       90.167221      27.337908     -19998.969      0              165.04279     -71.327017     -19699.479     -19628.152    
    748000   748000         2207.3599      800.44912      60.683868     -1232.4423     -19762.202      150.31717     -19904.819     -38.855093      97.247444     -19939.529      75.699804      74.85042       25.313252     -19997.922      0              177.32693     -87.245207     -19699.131     -19611.885    
    749000   749000         2250.4279      520.23392      39.440117     -974.04566     -19748.685      97.695266     -19882.506     -36.917218      99.488134     -19936.693      73.065127      75.04541       37.16659      -19999.264      0              188.00849     -47.745081     -19698.735     -19650.99     
    750000   750000         2197.1507      758.29256      57.487884     -810.43473     -19763.633      142.40054     -19813.861     -36.363231      99.912846     -19934.237      60.333628      79.992553      28.596965     -19997.787      0              170.60468     -77.7777       -19699.01      -19621.232    
    751000   751000         2206.6499      694.78192      52.672998     -1176.365      -19753.998      130.47381     -19903.129     -47.082575      101.41514     -19943.821      59.855798      78.926839      47.290284     -19998.153      0              189.82247     -76.110122     -19699.635     -19623.524    
    752000   752000         2228.9768      622.68201      47.206939     -845.37661     -19760.505      116.9341      -19844.505     -38.978164      95.268066     -19941.768      51.503657      78.631795      47.140202     -19998.058      0              181.26275     -55.763752     -19699.335     -19643.571    
    753000   753000         2131.8242      942.06809      71.420324     -719.46758     -19744.671      176.91194     -19738.766     -39.406598      98.046411     -19940.695      74.733227      70.144114      47.491059     -19999.335      0              196.02453     -130.42684     -19698.186     -19567.759    
    754000   754000         2172.8138      779.47828      59.094021     -136.49285     -19754.273      146.37903     -19640.336     -39.51952       96.070545     -19941.537      63.743024      78.125545      42.442024     -19998.088      0              187.26384     -91.466883     -19699.361     -19607.894    
    755000   755000         2176.1194      747.16778      56.644489     -355.15737     -19762.176      140.31141     -19706.28      -36.619333      99.502034     -19933.835      61.503032      77.019893      30.379889     -19996.718      0              171.6587      -77.157391     -19699.022     -19621.865    
    756000   756000         2207.2077      703.64068      53.3446       -1182.1386     -19767.407      132.13741     -19916.246     -38.437505      97.699098     -19938.452      47.636681      91.897017      30.227346     -19997.713      0              171.04467     -64.255275     -19699.525     -19635.269    
    757000   757000         2129.4187      709.98271      53.825404     -669.58814     -19746.509      133.32839     -19772.332     -37.530044      95.050359     -19941.347      63.347573      86.366636      42.024421     -19998.867      0              194.83715     -85.988986     -19699.17      -19613.181    
    758000   758000         2217.8372      797.35291      60.449138     -868.50583     -19768.182      149.73573     -19824.877     -41.672859      98.52991      -19940.937      56.787979      83.852578      29.567667     -19997.794      0              172.75507     -80.829347     -19699.276     -19618.446    
    759000   759000         2198.6271      660.79964      50.096723     -1322.1552     -19768.533      124.09225     -19958.698     -39.116515      99.809579     -19937.077      62.067731      68.708856      34.702787     -19997.77       0              168.54412     -54.672704     -19699.114     -19644.441    
    760000   760000         2211.2933      767.46128      58.182985     -520.08527     -19769.287      144.12235     -19748.781     -40.570964      100.19506     -19938.902      48.642452      79.336303      38.730954     -19998.526      0              169.61522     -74.167084     -19699.331     -19625.164    
    761000   761000         2193.184       640.68948      48.572127     -55.648766     -19795.163      120.31574     -19688.074     -44.421733      101.46246     -19942.439      43.475143      73.328799      28.803852     -19999.48       0              147.27651     -25.166425     -19700.013     -19674.847    
    762000   762000         2152.8836      480.64139      36.438517     -784.28616     -19716.34       90.260144     -19812.493     -38.964179      105.82251     -19931.612      67.18572       83.576742      60.221714     -19998.47       0              215.27225     -72.523316     -19698.603     -19626.08     
    763000   763000         2119.8712      725.93462      55.034755      71.712479     -19730.906      136.32401     -19577.537     -32.937266      96.887618     -19933.325      50.648732      94.741255      52.693611     -19997.275      0              202.41903     -104.46601     -19699.048     -19594.582    
    764000   764000         2072.5946      652.86834      49.495433      492.87627     -19755.814      122.60282     -19516.062     -27.779037      99.011491     -19924.963      54.888938      62.285475      48.084713     -19996.195      0              169.14835     -65.849759     -19699.061     -19633.212    
    765000   765000         2057.4844      731.21994      55.435447     -1050.0486     -19765.124      137.31655     -19877.388     -40.175946      100.80004     -19936.734      61.855754      63.939787      42.351054     -19997.358      0              171.60989     -71.936362     -19699.744     -19627.807    
    766000   766000         2134.3744      784.45441      59.471273     -571.57952     -19732.162      147.3135      -19720.704     -40.019084      98.488213     -19938.413      60.750537      95.730687      46.331826     -19996.882      0              206.25088     -113.76453     -19698.613     -19584.848    
    767000   767000         2132.2754      658.13192      49.894478     -673.73027     -19769.776      123.59127     -19806.321     -38.44904       97.625496     -19938.052      53.209848      76.235896      36.215671     -19997.229      0              168.27599     -53.329042     -19699.514     -19646.185    
    768000   768000         2103.6331      744.61324      56.450823     -820.49677     -19784.621      139.83169     -19839.809     -40.47582       96.345928     -19941.087      54.990171      72.742548      26.490658     -19996.957      0              156.46555     -55.427232     -19700.217     -19644.789    
    769000   769000         2113.2472      831.16671      63.012639      100.45578     -19765.59       156.08566     -19585.627     -35.087181      94.082107     -19938.181      58.985124      63.372191      46.564135     -19997.176      0              172.59143     -90.315927     -19699.82      -19609.504    
    770000   770000         2116.7222      596.7402       45.240232     -1151.8824     -19757.151      112.06246     -19918.874     -40.373545      97.023824     -19939.901      53.805545      81.845719      43.757527     -19996.551      0              182.74999     -53.953344     -19699.041     -19645.088    
    771000   771000         2068.6454      783.57374      59.404507      728.73496     -19758.741      147.14812     -19438.383     -32.447621      96.571008     -19933.618      64.853632      73.269076      34.408547     -19997.742      0              174.877       -87.622472     -19699.216     -19611.593    
    772000   772000         2171.8584      596.17173      45.197134     -537.62449     -19776.341      111.9557      -19792.171     -34.3543        97.136283     -19936.026      47.710902      75.459317      33.815696     -19998.808      0              159.68471     -35.240765     -19699.626     -19664.386    
    773000   773000         2137.1529      752.88711      57.078084     -676.48957     -19766.903      141.38545     -19786.309     -39.300351      95.790657     -19943.132      67.773883      69.94895       35.860182     -19999.622      0              176.22895     -73.784026     -19699.302     -19625.518    
    774000   774000         2196.7082      620.0882       47.010297     -1643.2973     -19783.123      116.447       -20057.264     -40.899008      95.28648      -19942.917      57.31122       61.169732      39.019195     -19997.305      0              159.79425     -33.217778     -19699.894     -19666.676    
    775000   775000         2239.2066      662.84233      50.251584     -771.54034     -19748.87       124.47585     -19807.778     -37.238733      96.274515     -19938.5        57.121972      75.801486      52.920263     -19997.536      0              189.62962     -75.239615     -19699.634     -19624.395    
    776000   776000         2135.8728      927.20577      70.293578     -765.32193     -19752.833      174.12093     -19760.618     -39.45754       96.559924     -19939.64       61.708058      80.227217      41.2286       -19996.743      0              186.80752     -120.40935     -19699.121     -19578.712    
    777000   777000         2141.5361      697.86261      52.906552      20.967763     -19775.95       131.05234     -19639.914     -35.461599      99.982966     -19933.111      49.516373      76.547349      28.883051     -19997.633      0              157.16069     -54.550981     -19699.449     -19644.898    
    778000   778000         2180.4077      617.725        46.831137      128.58375     -19772.251      116.00322     -19625.685     -36.512735      96.747184     -19939.339      47.670461      64.511093      51.523446     -19999.574      0              167.08873     -43.314927     -19699.562     -19656.247    
    779000   779000         2185.2         557.80564      42.288514     -909.88355     -19743.802      104.7509      -19855.317     -40.19773       98.801426     -19939.109      57.851047      85.867556      48.195437     -19997.713      0              195.30666     -59.869684     -19698.921     -19639.051    
    780000   780000         2165.6364      935.72631      70.93954      -10.268921     -19764.238      175.72101     -19590.958     -31.747261      98.219794     -19931.631      50.705015      71.808693      41.573229     -19998.104      0              167.39336     -110.49949     -19699.017     -19588.517    
    781000   781000         2195.0251      697.90697      52.909915     -858.04906     -19770.795      131.06067     -19843.68      -45.741495      97.894334     -19946.636      59.668848      79.34728       34.527963     -19998.788      0              175.8409      -59.286061     -19699.02      -19639.734    
    782000   782000         2185.7376      669.39684      50.748497     -2145.0601     -19737.727      125.70672     -20121.869     -44.713271      97.278959     -19945.675      88.690632      66.8442        47.751185     -19998.241      0              207.94894     -87.385889     -19699.406     -19612.02     
    783000   783000         2153.8743      705.91108      53.516724     -1506.8094     -19748.608      132.56377     -19974.19      -40.033687      97.37857      -19941.312      63.51881       75.280368      49.316859     -19998.657      0              192.70413     -83.172509     -19699.217     -19616.044    
    784000   784000         2118.0716      642.51293      48.710366     -1133.6911     -19767.985      120.65817     -19916.788     -38.096679      100.13809     -19936.883      56.246222      72.540779      37.217351     -19998.925      0              168.89836     -52.983204     -19700.31      -19647.327    
    785000   785000         2184.3746      666.49748      50.52869      -41.463067     -19797.275      125.16225     -19681.968     -37.888669      98.507828     -19938.978      46.974437      58.719196      33.030817     -19999.597      0              141.70297     -28.223381     -19700.336     -19672.113    
    786000   786000         2236.044       806.27092      61.125232     -899.1768      -19776.293      151.41045     -19838.604     -46.481469      99.318877     -19947.166      68.910362      75.581973      23.997143     -20000.003      0              170.87238     -74.752435     -19699.635     -19624.883    
    787000   787000         2166.1318      587.66478      44.552204     -399.46619     -19773.515      110.35818     -19758.104     -42.401462      95.938818     -19945.903      57.293111      87.009646      26.686256     -19999.44       0              172.38806     -36.813445     -19699.97      -19663.157    
    788000   788000         2197.9416      649.7009       49.255303     -860.41212     -19740.318      122.008       -19822.818     -35.981985      98.804556     -19935.622      71.858722      87.68744       33.295583     -19998.444      0              195.30337     -80.653796     -19698.964     -19618.31     
    789000   789000         2185.7194      793.49855      60.15693      -664.34182     -19754.009      149.01191     -19762.901     -37.612544      100.43469     -19936.22       63.80169       72.213719      42.859088     -19999.042      0              182.21102     -93.985027     -19698.982     -19604.997    
    790000   790000         2207.0139      676.13729      51.259506      132.00149     -19784.351      126.97252     -19626.004     -37.995714      94.935952     -19942.396      54.403455      65.282073      35.112172     -19999.336      0              158.04447     -42.828997     -19700.208     -19657.379    
    791000   791000         2180.3373      717.64908      54.406609     -850.64952     -19754.067      134.76806     -19821.486     -40.798956      95.20288      -19945.455      85.274522      74.544239      29.475492     -19999.859      0              191.38771     -79.737271     -19699.036     -19619.299    
    792000   792000         2178.6845      527.21036      39.969016     -552.19904     -19777.431      99.005378     -19809.676     -41.272952      98.247898     -19942.626      72.887243      59.317811      30.295898     -19999.601      0              165.19425     -21.500427     -19699.926     -19678.426    
    793000   793000         2181.377       771.87624      58.517693     -497.44293     -19780.546      144.95144     -19753.83      -37.545459      97.823765     -19936.549      53.271557      66.57009       32.978503     -19996.827      0              156.00254     -63.84051      -19699.435     -19635.595    
    794000   794000         2214.4279      864.74483      65.558272     -111.70643     -19728.408      162.39132     -19592.568     -39.131477      98.068956     -19938.831      86.725511      78.165716      42.290256     -19997.769      0              210.42289     -132.04199     -19698.059     -19566.017    
    795000   795000         2182.2684      585.22982      44.367604     -432.14779     -19748.684      109.90091     -19741.498     -37.016508      100.61085     -19936.001      52.490262      76.649775      54.359012     -19999.596      0              187.31736     -60.175469     -19698.959     -19638.783    
    796000   796000         2198.3988      736.38817      55.827262     -1224.779      -19753.747      138.2871      -19906.572     -44.089704      98.888525     -19943.786      53.840056      84.345765      47.937698     -19998.585      0              190.03861     -83.815236     -19699.275     -19615.46     
    797000   797000         2120.2214      755.3652       57.265953     -1225.3071     -19751.982      141.85081     -19901.368     -39.564245      100.54191     -19934.825      68.598168      78.109581      32.751928     -19995.802      0              182.84314     -88.380447     -19698.511     -19610.131    
    798000   798000         2232.0033      679.75976      51.534133     -1160.7086     -19753.722      127.65279     -19901.953     -38.579506      99.649341     -19936.669      71.480075      73.321102      35.795292     -19997.739      0              182.94635     -72.790316     -19698.86      -19626.07     
    799000   799000         2187.997       561.12645      42.540272     -678.30628     -19764.793      105.37452     -19820.642     -43.296489      98.03134      -19943.054      66.219861      59.332423      48.70672      -19997.789      0              178.26085     -39.050283     -19698.469     -19659.419    
    800000   800000         2206.9766      651.20327      49.369201     -825.35666     -19769.83       122.29013     -19843.715     -48.478855      99.520741     -19948.145      63.627047      75.143643      36.60311      -19999.187      0              178.31504     -51.51279      -19699.053     -19647.54     
    801000   801000         2204.3313      837.74288      63.511193     -258.89516     -19775.22       157.3206      -19679.435     -42.444868      98.852119     -19940.794      48.624083      85.955073      29.065016     -19997.201      0              165.57466     -81.728333     -19699.627     -19617.899    
    802000   802000         2158.9085      584.8893       44.341788     -7.2673774     -19757.792      109.83697     -19649.683     -34.946238      96.148032     -19935.38       57.670218      79.085703      38.134024     -19996.582      0              177.58764     -50.670309     -19698.626     -19647.955    
    803000   803000         2175.3713      763.49504      57.882296     -579.99713     -19761.494      143.37752     -19755.974     -40.122782      98.337622     -19939.848      51.867017      73.98421       47.872493     -19998.063      0              178.35378     -80.771855     -19698.889     -19618.117    
    804000   804000         2199.8899      705.64913      53.496865     -77.259176     -19750.072      132.51458     -19635.921     -37.370293      97.003898     -19938.137      59.983193      81.129583      43.037192     -19997.77       0              188.06454     -81.278556     -19698.836     -19617.557    
    805000   805000         2200.8338      753.424        57.118787     -91.998812     -19788.294      141.48627     -19668.674     -34.119666      95.361969     -19935.546      54.937549      70.104088      20.892745     -19996.788      0              147.25214     -52.531928     -19699.339     -19646.807    
    806000   806000         2208.4064      595.94546      45.17998      -1322.1203     -19753.563      111.91321     -19955.898     -35.120928      98.542787     -19933.974      74.390415      73.667376      30.085363     -19997.395      0              180.41079     -56.819701     -19698.469     -19641.65     
    807000   807000         2200.5988      659.78295      50.019646     -644.41049     -19768.727      123.90132     -19797.992     -37.894525      100.4078      -19936.194      56.877681      74.475364      33.663474     -19998.707      0              167.46723     -54.504613     -19699.33      -19644.825    
    808000   808000         2207.9226      669.0535       50.722467     -1145.8243     -19733.936      125.64225     -19880.639     -39.821735      98.91674      -19939.286      67.582949      76.382587      56.867779     -19998.381      0              205.35058     -90.281448     -19698.575     -19608.293    
    809000   809000         2194.9436      685.80528      51.992458     -52.796348     -19786.4        128.78808     -19670.161     -38.608755      94.363183     -19941.905      50.355812      74.409492      28.371156     -19997.659      0              155.50407     -41.912457     -19699.525     -19657.612    
    810000   810000         2240.3175      702.94794      53.292082     -522.71349     -19766.553      132.00732     -19758.787     -39.586344      99.95175      -19937.781      71.750324      71.524839      26.179322     -19998.146      0              171.22766     -64.246106     -19698.792     -19634.546    
    811000   811000         2227.8543      898.34671      68.105707      52.782389     -19765.678      168.70146     -19584.431     -37.88117       102.93688     -19932.317      43.545989      79.376904      40.404505     -19997.372      0              166.63807     -102.20808     -19699.185     -19596.977    
    812000   812000         2136.6568      723.23029      54.829733      99.909892     -19750.371      135.81616     -19590.808     -35.395835      98.763399     -19934.047      67.532505      71.960225      40.635036     -19997.415      0              183.67595     -84.309158     -19698.864     -19614.555    
    813000   813000         2189.0853      649.96564      49.275374     -160.84293     -19774.13       122.05772     -19690.303     -40.198274      98.681626     -19939.17       47.268769      80.265595      35.781273     -19997.654      0              165.04006     -47.531638     -19699.604     -19652.073    
    814000   814000         2150.0704      741.89355      56.244637      36.840347     -19747.141      139.32096     -19599.064     -31.062314      98.877747     -19929.104      58.849631      90.059088      30.511157     -19996.92       0              181.96356     -90.520699     -19698.341     -19607.82     
    815000   815000         2140.4211      652.74492      49.486077      224.9827      -19765.072      122.57964     -19589.018     -34.26066       97.945259     -19935.146      55.66615       73.133664      37.090862     -19998.83       0              170.07336     -56.650402     -19699.143     -19642.493    
    816000   816000         2108.3739      617.63666      46.82444      -573.55903     -19781.053      115.98663     -19801.393     -39.147539      97.595277     -19939.216      36.350404      77.145378      41.037031     -19997.663      0              158.16288     -34.555422     -19699.622     -19665.066    
    817000   817000         2123.4007      738.9074       56.018251     -554.94775     -19780.333      138.76018     -19773.476     -38.834154      100.79908     -19936.764      56.933505      72.473716      24.932716     -19998.729      0              156.4309      -57.698827     -19699.272     -19641.573    
    818000   818000         2137.1441      805.25462      61.048184     -683.00572     -19771.377      151.2196      -19782.498     -38.417189      98.823309     -19935.883      69.854742      58.519922      33.305613     -19996.289      0              164.50606     -78.927758     -19699.085     -19620.158    
    819000   819000         2073.874       637.76628      48.350512     -303.86466     -19756.995      119.76679     -19709.453     -34.189576      96.791103     -19933.923      58.756401      79.892349      36.439763     -19996.525      0              176.92777     -62.176616     -19699.405     -19637.229    
    820000   820000         2114.6645      617.70644      46.82973      -1722.267      -19754.119      115.99973     -20047.477     -46.681625      98.551943     -19946.039      65.950161      78.04385       44.613927     -19997.91       0              191.92018     -60.870398     -19698.99      -19638.12     
    821000   821000         2089.1087      720.46675      54.620223     -344.19385     -19789.296      135.2972      -19735.808     -42.500906      97.732978     -19942.822      46.763598      71.904007      32.724921     -19998.054      0              153.52646     -45.627172     -19699.626     -19653.998    
    822000   822000         2086.5841      726.20185      55.055014     -692.50113     -19740.906      136.37419     -19769.129     -31.446169      100.31924     -19930.163      51.635171      91.28409       43.89459      -19999.036      0              189.25665     -94.109124     -19698.641     -19604.532    
    823000   823000         2135.0138      735.75314      55.779119     -405.54004     -19761.143      138.16784     -19719.366     -36.999616      97.401076     -19937.488      50.879843      84.232778      38.579187     -19997.889      0              176.34462     -75.692029     -19698.667     -19622.975    
    824000   824000         2129.2358      633.12107      47.998348     -577.93111     -19771.118      118.89446     -19789.589     -40.246032      97.984078     -19940.833      58.186035      71.914378      36.682545     -19998.571      0              169.71571     -46.84098      -19699.064     -19652.223    
    825000   825000         2082.7595      766.4712       58.107925      260.38047     -19779.568      143.93642     -19573.743     -36.958147      99.080061     -19935.532      40.506686      74.078161      37.838923     -19997.654      0              155.96448     -63.653373     -19699.285     -19635.632    
    826000   826000         2115.9843      739.23735      56.043265      35.712704     -19760.78       138.82215     -19613.469     -28.887834      98.687463     -19929.614      39.351934      86.815984      39.980546     -19999.413      0              168.83371     -76.937114     -19698.895     -19621.958    
    827000   827000         2149.5048      766.14019      58.08283      -746.11342     -19756.644      143.87426     -19790.11      -35.827785      97.117377     -19937.105      63.600809      86.588249      27.933102     -19998.395      0              180.46096     -85.519231     -19698.289     -19612.77     
    828000   828000         2182.8852      727.06038      55.120101     -77.909219     -19786.047      136.53542     -19668.029     -36.297266      97.061149     -19937.773      43.302078      66.08596       39.362357     -19998.537      0              151.72654     -49.688486     -19699.2       -19649.511    
    829000   829000         2139.7655      620.81972      47.065755     -239.79368     -19779.557      116.58438     -19719.968     -42.016197      98.427222     -19942.505      59.196216      66.4425        34.867217     -19998.916      0              162.94787     -35.778051     -19698.751     -19662.973    
    830000   830000         2054.9365      679.90753      51.545336     -654.32536     -19772.208      127.68054     -19800.051     -36.523094      100.28151     -19933.837      42.144748      91.12529       25.983198     -19997.596      0              161.62919     -54.376265     -19698.904     -19644.528    
    831000   831000         2058.6888      713.57785      54.09796       32.313735     -19769.312      134.00352     -19627.628     -27.15596       98.155263     -19926.738      39.681108      73.319442      40.936788     -19997.737      0              157.42564     -63.490231     -19698.799     -19635.308    
    832000   832000         2153.8915      723.99164      54.887453     -511.03094     -19781.257      135.95914     -19766.762     -27.949686      100.32852     -19924.765      52.879933      61.68709       27.185519     -19997.144      0              143.50864     -53.870184     -19699.168     -19645.298    
    833000   833000         2111.7559      598.2897       45.357703     -823.13213     -19782.316      112.35344     -19865.609     -39.15666       95.608155     -19941.001      52.149723      74.979406      29.710383     -19997.452      0              158.68506     -29.076185     -19699.039     -19669.962    
    834000   834000         2161.7845      760.56326      57.66003      -268.70921     -19777.052      142.82696     -19698.093     -36.733858      100.84091     -19935.779      53.464461      73.688365      28.924551     -19999.886      0              158.72641     -64.612549     -19698.838     -19634.225    
    835000   835000         2166.5371      712.06878      53.983554      178.62506     -19779.194      133.72013     -19603.017     -31.634076      97.133702     -19930.263      41.055372      64.089777      43.0218       -19995.762      0              151.06853     -54.059887     -19699.534     -19645.474    
    836000   836000         2105.6098      691.54309      52.427454     -687.22057     -19782.212      129.86559     -19815.688     -41.204952      99.648332     -19939.362      49.717119      70.637053      34.102431     -19997.806      0              157.15071     -46.804706     -19699.151     -19652.346    
    837000   837000         2088.4231      720.09253      54.591853     -531.05894     -19751.525      135.22692     -19742.523     -29.27391       95.414218     -19929.496      67.066696      63.037941      43.95923      -19995.637      0              177.97131     -82.189775     -19698.488     -19616.298    
    838000   838000         2071.3376      753.44663      57.120503     -116.11359     -19770.979      141.49052     -19657.087     -34.645546      99.104466     -19931.982      55.665603      70.594225      32.35769      -19996.44       0              161.003       -70.07157      -19699.56      -19629.488    
    839000   839000         2069.2168      814.75295      61.768274     -476.2292      -19773.373      153.0033      -19733.563     -38.942021      97.144342     -19939.436      52.047266      68.903021      40.764117     -19997.638      0              166.0627      -78.637504     -19699.008     -19620.37     
    840000   840000         2065.0771      702.91296      53.289431     -881.08127     -19770.663      132.00075     -19848.082     -34.021313      99.477242     -19931.717      49.347169      69.304337      38.513309     -19997.173      0              161.05387     -60.31141      -19698.974     -19638.662    
    841000   841000         1983.0011      721.49172      54.697928     -225.37501     -19763.008      135.48967     -19681.087     -34.641042      99.782664     -19932.647      51.647687      76.408496      39.537654     -19997.788      0              169.63832     -71.121702     -19698.64      -19627.519    
    842000   842000         1984.4055      705.8335       53.510843     -317.73411     -19761.637      132.5492      -19704.608     -38.291732      99.396518     -19935.934      63.454341      61.752275      45.250029     -19997.039      0              174.2969      -69.618877     -19698.707     -19629.088    
    843000   843000         2051.53        646.13697      48.985113     -1123.7792     -19763.503      121.33873     -19909.27      -42.509658      101.12851     -19938.26       64.357217      77.668065      29.858584     -19996.879      0              174.75714     -56.401419     -19698.565     -19642.164    
    844000   844000         2017.8832      705.57194      53.491014     -1379.5929     -19757.18       132.50008     -19952.589     -37.749003      99.103092     -19936.076      59.97735       75.447678      40.26611      -19997.43       0              178.89645     -73.971277     -19698.651     -19624.68     
    845000   845000         2065.585       850.01653      64.441686     -498.41977     -19776.118      159.62548     -19734.959     -40.794769      97.395503     -19941.947      62.892755      74.048239      26.831816     -19998.548      0              165.82976     -82.206965     -19698.699     -19616.492    
    846000   846000         2095.2469      657.57088      49.851944     -785.88382     -19757.239      123.48591     -19820.546     -35.479507      95.787868     -19937.227      60.639167      69.603824      46.567536     -19997.536      0              179.98877     -64.772356     -19698.525     -19633.753    
    847000   847000         2039.2865      660.56954      50.079279     -1176.5057     -19779.823      124.04904     -19935.412     -43.219979      97.254066     -19944.953      55.649502      64.261711      42.548904     -19998.987      0              165.12992     -43.291425     -19699.065     -19655.774    
    848000   848000         2084.8292      745.77675      56.539031     -920.47745     -19750.327      140.05019     -19829.06      -37.866956      93.05181      -19941.028      55.683834      87.789462      43.488874     -19996.213      0              190.70169     -88.090511     -19698.367     -19610.276    
    849000   849000         2046.4785      584.6219       44.321516     -250.90043     -19749.03       109.78675     -19698.879     -40.74145       97.267643     -19941.839      65.360251      73.871467      48.75991      -19998.365      0              192.80924     -59.152065     -19698.395     -19639.243    
    850000   850000         1967.0069      729.24722      55.28589       371.26265     -19752.297      136.94609     -19527.107     -37.861378      102.22163     -19933.889      56.252899      83.152913      39.220408     -19998.249      0              181.59193     -83.478504     -19698.829     -19615.351    
    851000   851000         2076.7245      605.37315      45.894715      17.669808     -19762.2        113.68365     -19644.316     -35.495671      98.641043     -19933.096      62.015952      71.889756      34.135017     -19996.241      0              170.8962      -50.775722     -19699.292     -19648.516    
    852000   852000         2069.3185      661.87618      50.178339      247.07985     -19780.08       124.29441     -19597.058     -28.370315      96.036095     -19930.887      48.798866      67.095843      32.536908     -19998.552      0              150.80693     -43.903468     -19699.689     -19655.785    
    853000   853000         2063.1285      709.06805      53.756062      516.99159     -19765.433      133.15662     -19509.395     -25.01569       98.258701     -19925.176      63.921915      65.957821      27.312888     -19998.419      0              159.74281     -66.714463     -19698.991     -19632.277    
    854000   854000         2102.5724      564.33526      42.78354      -1517.5466     -19779.873      105.9771      -20034.594     -44.554786      97.056765     -19944.203      55.680397      70.568239      34.94946      -19996.705      0              164.33031     -25.319021     -19699.215     -19673.896    
    855000   855000         2119.6071      768.39005      58.253397     -484.42833     -19772.33       144.29676     -19743.175     -40.853415      96.375089     -19942.3        59.595948      71.813008      35.969754     -19997.822      0              169.96969     -71.28421      -19699.318     -19628.034    
    856000   856000         2097.3699      749.95726      56.855966     -190.54133     -19766.435      140.83525     -19670.889     -33.257912      101.64312     -19928.687      53.447177      76.358988      30.55325      -19997.072      0              162.25192     -73.731141     -19699.331     -19625.6      
    857000   857000         2105.2827      646.25931      48.994388     -219.89911     -19773.513      121.3617      -19704.418     -37.411799      96.200223     -19939.815      46.595839      82.877152      34.147581     -19998.603      0              166.30201     -47.160196     -19699.311     -19652.151    
    858000   858000         2147.5359      683.82719      51.842494     -1200.3016     -19764.456      128.41661     -19921.333     -34.238304      95.771096     -19936.671      51.619377      86.122527      32.269438     -19998.204      0              172.21499     -63.16237      -19699.202     -19636.039    
    859000   859000         2162.1056      765.19494      58.011169     -691.13985     -19773.451      143.69675     -19794.028     -35.46207       100.16019     -19935.443      67.117442      61.337988      31.040997     -20000.141      0              161.99194     -69.254933     -19699.009     -19629.754    
    860000   860000         2077.4918      718.35598      54.460201     -137.642       -19776.145      134.90081     -19673.96      -34.31815       94.800702     -19938.035      46.322695      76.553288      37.083505     -19998.517      0              161.8899      -58.202324     -19699.446     -19641.244    
    861000   861000         2095.4849      719.95784      54.581641     -785.16169     -19782.043      135.20163     -19833.463     -33.189376      98.419355     -19931.277      48.502937      74.756836      24.346629     -19996.507      0              149.23384     -52.768274     -19699.61      -19646.842    
    862000   862000         2182.7495      787.28928      59.686191     -248.3877      -19770.331      147.84587     -19681.523     -34.318664      98.289899     -19933.962      60.245434      67.489474      32.919937     -19997.933      0              163.6306      -76.585829     -19699.071     -19622.485    
    863000   863000         2220.4476      642.55021      48.713193      350.3984      -19748.125      120.66517     -19544.176     -32.441706      98.287478     -19930.933      69.377206      76.969324      33.67212      -19996.779      0              182.80805     -71.338991     -19698.799     -19627.46     
    864000   864000         2225.8437      732.26559      55.51472      -993.35872     -19778.056      137.51291     -19876.65      -37.903976      98.163253     -19936.124      62.436897      63.405703      29.978416     -19996.383      0              158.06804     -58.435409     -19698.978     -19640.543    
    865000   865000         2236.1382      784.27629      59.457769      201.00497     -19768.053      147.28005     -19572.997     -28.093699      97.811364     -19925.91       48.999632      73.866088      32.812462     -19995.628      0              157.85741     -78.422267     -19699.195     -19620.773    
    866000   866000         2217.5014      653.5319       49.54574      -655.25533     -19753.149      122.72743     -19786.166     -38.015302      98.894764     -19938.147      57.64964       86.305471      37.682177     -19999.026      0              184.99776     -68.156743     -19698.578     -19630.422    
    867000   867000         2130.089       552.87882      41.915001     -1229.5541     -19758.92       103.82568     -19947.341     -39.648065      98.407054     -19937.419      68.928983      74.098087      33.386019     -19996.178      0              178.49969     -43.682802     -19698.777     -19655.094    
    868000   868000         2009.0023      815.10712      61.795124      522.51424     -19754.839      153.06981     -19477.575     -38.051626      95.076233     -19939.669      59.301117      77.538845      44.770426     -19996.694      0              184.83067     -96.591904     -19698.361     -19601.769    
    869000   869000         2007.6909      631.15506      47.849301      452.72362     -19758.583      118.52526     -19532.452     -29.415816      98.078796     -19927.702      52.348481      80.47607       33.544384     -19996.365      0              169.11921     -58.714337     -19698.772     -19640.058    
    870000   870000         2081.0197      646.41294      49.006035     -338.98062     -19732.437      121.39055     -19691.618     -30.16861       97.290178     -19929.726      50.359557      85.008986      58.434798     -19996.847      0              197.28823     -87.24224      -19698.289     -19611.047    
    871000   871000         2102.6528      721.38113      54.689544     -1177.2208     -19775.789      135.46891     -19920.128     -40.631219      100.63673     -19936.624      51.171892      72.197604      34.792128     -19996.629      0              160.83477     -58.975706     -19699.296     -19640.32     
    872000   872000         2124.2157      826.10882      62.629188     -409.55657     -19774.359      155.13583     -19716.569     -38.38854       96.840672     -19938.637      49.097799      78.461382      33.321267     -19997.089      0              164.27756     -80.283987     -19699.507     -19619.223    
    873000   873000         2131.3481      677.29106      51.346976     -366.67185     -19769.437      127.18919     -19729.401     -40.29462       98.793576     -19940.571      50.780525      71.999659      45.270491     -19999.07       0              171.13353     -57.115734     -19699.364     -19642.248    
    874000   874000         2135.614       833.6839       63.203472      202.64718     -19750.653      156.55836     -19545.928     -31.645135      98.115695     -19932.395      53.793244      84.860921      39.180233     -19998.865      0              181.74219     -104.62775     -19698.722     -19594.094    
    875000   875000         2126.0012      672.97652      51.01988      -4.1649313     -19763.418      126.37896     -19638.029     -30.610313      97.172688     -19931.165      51.097576      77.129741      36.924279     -19997.727      0              167.74724     -61.837179     -19698.876     -19637.039    
    876000   876000         2102.4019      648.79466      49.186599     -379.30853     -19747.806      121.83782     -19716.124     -31.231714      98.001631     -19930.913      50.537         72.235953      56.514306     -19997.682      0              183.10653     -72.857661     -19698.826     -19625.968    
    877000   877000         2111.9644      665.22463      50.432192     -29.052085     -19769.728      124.92322     -19651.71      -37.444256      97.302288     -19937.633      62.68834       65.891995      36.251185     -19997.491      0              167.90502     -54.051566     -19698.856     -19644.804    
    878000   878000         2117.5799      582.2406       44.140984     -774.46601     -19783.563      109.33956     -19858.303     -35.127802      99.014259     -19933.584      53.618899      61.270763      33.251439     -19997.471      0              150.02098     -25.383147     -19699.607     -19674.224    
    879000   879000         2153.0359      756.70538      57.367556      53.938214     -19756.52       142.10248     -19601.597     -32.382772      97.712636     -19932.874      48.917176      86.816266      38.511482     -19998.204      0              176.35405     -84.809998     -19699.227     -19614.417    
    880000   880000         2086.1842      664.40319      50.369917      168.1878      -19767.852      124.76896     -19603.108     -39.924565      98.64452      -19938.679      53.099732      79.046108      35.339688     -19997.399      0              170.82654     -56.078135     -19699.161     -19643.083    
    881000   881000         2099.6253      810.58238      61.452094     -540.6457      -19749.974      152.2201      -19726.257     -32.898864      96.909859     -19931.962      49.261996      88.838404      41.354818     -19995.973      0              181.9883      -101.58614     -19699.34      -19597.754    
    882000   882000         2166.5752      736.83761      55.861335     -626.13302     -19774.404      138.3715      -19784.855     -37.230382      97.500233     -19938.375      55.135725      73.558593      32.961566     -19998.645      0              163.97101     -63.354023     -19699.387     -19636.033    
    883000   883000         2121.5687      776.5397       58.871241      278.84531     -19768.788      145.82719     -19556.684     -26.356829      93.894008     -19928.639      51.774671      76.380057      29.669873     -19996.176      0              159.85058     -76.025416     -19698.987     -19622.961    
    884000   884000         2130.639       599.72265      45.466338     -90.858541     -19782.203      112.62254     -19691.176     -35.506252      100.75348     -19931.829      54.429339      68.751957      24.959502     -19997.076      0              149.62538     -29.864868     -19699.446     -19669.581    
    885000   885000         2098.1109      684.76369      51.913492     -716.42808     -19773.323      128.59248     -19815.015     -33.836298      100.08604     -19930.206      55.668094      78.476215      21.183081     -19996.456      0              156.88338     -54.455745     -19699.186     -19644.731    
    886000   886000         2180.718       828.88814      62.839895     -377.44353     -19752.048      155.65776     -19686.103     -38.542283      99.682736     -19936.917      65.424115      76.493915      40.057305     -19998.057      0              184.86887     -102.57505     -19698.965     -19596.39     
    887000   887000         2141.578       792.07012      60.048638      347.64559     -19771.912      148.74367     -19540.538     -35.707218      98.798226     -19934.096      52.700173      71.692726      33.967588     -19997.187      0              162.18416     -75.918775     -19699.087     -19623.168    
    888000   888000         2121.1366      820.05877      62.170521      293.08244     -19768.597      153.99968     -19544.936     -36.090302      96.919692     -19939.079      53.965314      69.133274      44.021521     -19999.908      0              170.48216     -84.163872     -19698.761     -19614.597    
    889000   889000         2087.3115      675.5697       51.216476     -944.04581     -19772.389      126.86593     -19869.909     -31.572504      96.919291     -19932.277      57.778804      67.135912      31.960244     -19997.624      0              159.88816     -53.681972     -19699.205     -19645.523    
    890000   890000         2114.0644      659.27997      49.981514     -296.32172     -19768.019      123.80687     -19714.643     -34.429132      95.831025     -19935.954      54.225581      80.691982      30.946913     -19997.356      0              167.93552     -54.80719      -19699.019     -19644.212    
    891000   891000         2104.8704      880.18918      66.729143     -935.0732      -19759.028      165.29164     -19815.99      -38.627042      98.125099     -19938.773      62.950373      75.38603       38.876371     -19998.271      0              179.7444      -105.31577     -19699.053     -19593.737    
    892000   892000         2038.8672      611.88867      46.388672     -195.74822     -19758.527      114.90721     -19690.146     -34.425802      99.135218     -19933.41       72.391278      69.955839      30.309557     -19998.12       0              174.88329     -54.942444     -19698.562     -19643.62     
    893000   893000         2159.739       778.20279      58.997323     -88.728177     -19773.463      146.13951     -19648.412     -31.818435      97.993302     -19930.054      46.313975      69.199057      38.720211     -19996.229      0              156.59168     -72.064553     -19699.388     -19627.323    
    894000   894000         2100.5937      629.57145      47.729244     -915.48612     -19771.235      118.22787     -19870.605     -36.437649      95.420017     -19938.484      53.157971      78.405255      32.087134     -19997.466      0              167.2486      -46.29701      -19699.304     -19653.007    
    895000   895000         2146.225       651.29651      49.376269      212.22486     -19767.037      122.30764     -19594.287     -32.95017       96.359851     -19932.305      58.071773      70.3377        34.012566     -19995.714      0              165.26777     -54.425165     -19699.154     -19644.729    
    896000   896000         2139.7217      690.60764      52.356536     -336.99619     -19765.62       129.68992     -19716.029     -29.27463       100.17164     -19927.862      59.096391      75.921247      25.170137     -19998.759      0              162.24165     -62.87339      -19698.804     -19635.93     
    897000   897000         2113.6302      682.4786       51.740255      339.1619      -19802.543      128.16336     -19593.765     -33.762421      97.128782     -19934.075      35.343835      58.724175      34.483511     -19997.441      0              131.53224     -25.29153      -19699.671     -19674.379    
    898000   898000         2166.6521      710.51119      53.86547      -2053.0289     -19770.855      133.42763     -20125.403     -42.922439      98.534324     -19941.373      59.536759      76.860944      31.453426     -19996.985      0              170.51731     -61.40939      -19698.837     -19637.428    
    899000   899000         2073.2206      611.9313       46.391904      183.89913     -19782.708      114.91521     -19624.082     -34.824134      95.043177     -19935.763      62.678836      58.716694      29.501915     -19995.982      0              153.05482     -31.57189      -19699.364     -19667.793    
    900000   900000         2049.3803      700.9548       53.140977     -941.47425     -19760.478      131.63303     -19852.62      -36.065104      97.777301     -19936.837      70.331248      77.967846      26.2896       -19998.549      0              176.35918     -69.725655     -19698.571     -19628.845    
    901000   901000         2099.4652      871.56227      66.075118     -16.700196     -19764.898      163.67158     -19605.196     -35.068674      96.248033     -19936.509      54.911378      81.217531      32.515341     -19997.689      0              171.61146     -97.947229     -19699.174     -19601.226    
    902000   902000         2172.8852      685.44402      51.96507       382.2897      -19765.439      128.72024     -19545.854     -26.600991      98.522075     -19924.337      44.935112      75.314522      35.753752     -19996.258      0              158.89791     -62.604283     -19699.323     -19636.719    
    903000   903000         2100.4588      683.08435      51.786178     -104.98042     -19774.991      128.27712     -19671.667     -38.005858      97.309814     -19939.053      51.665478      75.433027      34.33456      -19998.357      0              164.06168     -52.306995     -19699.021     -19646.714    
    904000   904000         2159.1559      565.86524      42.899531     -1373.9256     -19761.006      106.26442     -19981.304     -42.230083      99.317572     -19941.283      76.309274      65.140493      35.958115     -19998.371      0              180.27686     -43.374792     -19698.117     -19654.742    
    905000   905000         2153.7793      639.35875      48.471241     -860.28735     -19775.827      120.06584     -19860.239     -43.797031      97.876903     -19945.167      54.906608      69.312669      42.164431     -19999.247      0              169.33982     -43.474495     -19699.236     -19655.762    
    906000   906000         2185.782       755.8971       57.306278     -854.55309     -19762.372      141.9507      -19823.536     -35.627473      98.399506     -19935.285      64.310013      73.937978      31.661876     -19998.057      0              172.91234     -78.605088     -19699.027     -19620.422    
    907000   907000         2173.9953      626.36465      47.486129     -739.47735     -19759.218      117.62566     -19817.355     -32.782901      98.178411     -19931.977      55.999588      81.147379      33.308424     -19997.372      0              172.75931     -57.289923     -19698.882     -19641.592    
    908000   908000         2138.5662      665.70176      50.468364     -1126.1355     -19785.653      125.01282     -19928.306     -45.32825       98.303721     -19944.277      57.223429      81.226935      18.840598     -19997.253      0              158.62472     -38.777689     -19699.417     -19660.64     
    909000   909000         2100.4736      768.60271      58.26952      -779.76723     -19766.741      144.3367      -19807.743     -36.01227       99.08331      -19934.65       66.783461      77.284693      22.132235     -19997.721      0              167.90895     -76.164857     -19698.569     -19622.404    
    910000   910000         2145.5304      729.47681      55.303296     -1031.4185     -19761.375      136.9892      -19869.539     -43.547948      100.01773     -19941.42       51.979565      83.612433      40.76732      -19997.89       0              180.04494     -74.447423     -19698.834     -19624.386    
    911000   911000         2078.7631      654.84397      49.64521      -771.66738     -19765.299      122.97382     -19825.739     -34.591362      100.83081     -19933.982      56.264021      75.395632      34.040258     -20000.222      0              168.6832      -56.095425     -19698.421     -19642.325    
    912000   912000         2156.1447      790.04815      59.895347     -476.48839     -19755.587      148.36396     -19720.477     -32.555528      96.974341     -19934.153      49.8786        75.475013      49.178768     -19998.571      0              178.56548     -91.076121     -19698.299     -19607.223    
    913000   913000         2129.4533      674.39911      51.12773      -325.51066     -19755.851      126.64611     -19706.574     -37.520145      97.68862      -19936.636      57.483844      76.329277      43.263222     -19996.804      0              180.78444     -69.301292     -19698.506     -19629.205    
    914000   914000         2120.0879      730.01883      55.344388     -422.69184     -19780.543      137.09099     -19743.92      -38.154955      97.513807     -19936.871      58.187245      75.734021      20.856445     -19996.23       0              156.32841     -55.420231     -19698.872     -19643.452    
    915000   915000         2138.1494      846.24913      64.156071      293.48729     -19747.463      158.918       -19518.788     -29.560942      95.828323     -19931.493      54.829318      82.05283       44.080479     -19997.761      0              184.02979     -109.69128     -19698.237     -19588.545    
    916000   916000         2084.0249      691.27968      52.407485      360.65755     -19772.317      129.81613     -19556.778     -31.6393        96.384561     -19932.189      43.113948      88.285194      26.650532     -19996.935      0              159.87197     -56.470218     -19698.971     -19642.501    
    917000   917000         2145.4293      600.5438       45.528591      259.42453     -19766.558      112.77674     -19592.119     -39.278667      99.890578     -19937.037      42.364494      92.927435      31.965116     -19997.649      0              170.47987     -45.011925     -19698.793     -19653.781    
    918000   918000         2084.1169      581.7831       44.1063       -376.51326     -19772.707      109.25365     -19752.945     -42.37324       99.73689      -19941.93       51.4584        69.2179        45.201379     -19999.293      0              169.22266     -35.394425     -19698.848     -19663.453    
    919000   919000         2160.2849      715.08217      54.212006     -676.7988      -19745.219      134.28602     -19771.799     -36.5923        96.127985     -19937.798      78.370314      71.882976      39.285256     -19997.333      0              192.57831     -86.944049     -19697.877     -19610.933    
    920000   920000         2110.3039      696.769        52.823643     -424.30898     -19755.778      130.84697     -19725.783     -29.833652      98.193821     -19929.701      62.66647       70.427813      37.733313     -19998.061      0              173.92247     -73.67653      -19698.608     -19624.931    
    921000   921000         2114.0354      617.41649      46.807748     -1159.5334     -19769.442      115.94528     -19929.1       -44.410071      100.16158     -19943.959      68.376472      68.332728      35.533509     -19999.711      0              174.51756     -45.146268     -19698.643     -19653.496    
    922000   922000         2149.6096      795.8485       60.335085      23.546124     -19778.828      149.45321     -19623.779     -35.825335      97.329384     -19937.966      49.086991      69.283342      37.751904     -19999.47       0              159.13797     -69.518718     -19698.894     -19629.375    
    923000   923000         2146.3776      765.84852      58.060718     -962.6024      -19750.975      143.81948     -19835.952     -40.303369      98.885287     -19938.436      66.856331      75.478819      41.908032     -19997.017      0              187.46087     -91.24596      -19698.401     -19607.155    
    924000   924000         2050.9173      732.54825      55.536149      331.40229     -19778.236      137.56599     -19561.9       -36.746947      100.40194     -19932.547      35.39741       81.385387      34.617241     -19996.202      0              154.31089     -58.434847     -19699.105     -19640.67     
    925000   925000         2086.0648      748.28318      56.72905       74.280866     -19764.02       140.52087     -19605.844     -37.129055      102.08185     -19935.403      55.293971      71.463333      41.708435     -20000.356      0              171.38267     -74.69323      -19698.193     -19623.499    
    926000   926000         2171.7503      569.99984      43.212984      305.72625     -19758.644      107.04086     -19578.936     -37.409188      99.522933     -19936.059      63.383104      73.600325      37.424962     -19998.173      0              177.41511     -46.863055     -19698.466     -19651.603    
    927000   927000         2149.8846      583.29742      44.221104     -380.62046     -19758.102      109.53803     -19739.032     -31.349524      99.443363     -19928.118      55.54026       68.210119      42.939972     -19996.212      0              170.01621     -49.789922     -19698.354     -19648.564    
    928000   928000         2131.8783      685.06515      51.936347     -139.87728     -19727.083      128.64909     -19631.681     -33.831629      99.552755     -19931.036      69.711801      87.664262      43.574319     -19996.757      0              203.95259     -99.439965     -19697.874     -19598.434    
    929000   929000         2107.5161      695.44133      52.722989     -1539.1154     -19772.729      130.59765     -20007.956     -45.142442      101.97994     -19941.372      61.147377      70.956641      33.974644     -19998.209      0              168.64293     -56.145504     -19698.276     -19642.131    
    930000   930000         2141.0725      785.27677      59.533618     -270.49236     -19768.862      147.46794     -19685.686     -33.941137      95.902367     -19936.774      58.564004      69.315511      37.590449     -19998.736      0              167.91283     -77.251369     -19698.645     -19621.394    
    931000   931000         2122.8691      620.73171      47.059083     -1557.0743     -19766.22       116.56785     -20019.745     -35.751165      97.65816      -19936.527      56.270101      63.033502      46.962161     -19998.434      0              170.30765     -49.259859     -19698.912     -19649.652    
    932000   932000         2071.3865      675.44659      51.207142     -411.28244     -19750.193      126.84281     -19721.106     -31.829238      96.605891     -19931.931      45.490882      78.361194      53.978199     -19996.708      0              181.73854     -74.868844     -19698.219     -19623.35     
    933000   933000         2152.15        665.62133      50.462267     -745.72994     -19767.279      124.99772     -19819.531     -39.475434      99.652003     -19936.695      51.765203      85.074229      29.902176     -19996.871      0              169.41516     -56.27056      -19698.552     -19642.282    
    934000   934000         2129.1502      701.60175      53.190024     -699.86566     -19774.08       131.75452     -19808.674     -36.97997       95.118253     -19937.967      38.640902      91.242791      31.346323     -19996.105      0              163.88633     -56.329107     -19698.655     -19642.326    
    935000   935000         2159.1025      731.23659      55.436709     -348.8727      -19752.8        137.31967     -19698.402     -40.02853       99.571705     -19938.103      52.942306      84.293274      43.807746     -19997.646      0              185.303       -82.575657     -19698.056     -19615.481    
    936000   936000         2120.1116      745.92528      56.550292     -1312.6341     -19763.914      140.07808     -19935.829     -37.16          96.620984     -19937.295      53.006086      71.600932      45.039955     -19996.756      0              173.38094     -74.655694     -19698.491     -19623.836    
    937000   937000         2057.918       618.09136      46.858911     -516.87049     -19753.549      116.07201     -19760.33      -36.812661      99.329732     -19933.998      56.694974      73.026757      46.663971     -19996.515      0              180.44859     -60.308116     -19697.785     -19637.477    
    938000   938000         2148.0184      689.48569      52.271479      523.26571     -19759.678      129.47923     -19505.827     -31.560515      99.445154     -19929.985      50.289366      55.436296      58.940115     -19997.87       0              170.30662     -67.752141     -19697.951     -19630.199    
    939000   939000         2157.0214      785.62198      59.559789     -207.77326     -19765.44       147.53276     -19667.292     -34.253269      95.922665     -19936.145      37.094684      76.454738      53.438373     -19997.815      0              170.70544     -80.946851     -19698.854     -19617.907    
    940000   940000         2053.83        556.4143       42.183034     -707.14427     -19786.012      104.48962     -19849.6       -35.973851      95.543774     -19936.864      40.09359       63.049008      43.690315     -19996.434      0              150.85204     -17.411738     -19698.934     -19681.522    
    941000   941000         2143.8883      756.05434      57.318199     -941.34851     -19773.196      141.98023     -19854.961     -38.868         95.653798     -19940.325      47.104474      74.382912      41.753077     -19997.111      0              167.12905     -67.183489     -19698.4       -19631.216    
    942000   942000         2164.6514      605.62535      45.913835     -377.7045      -19766.718      113.73101     -19742.762     -33.668636      96.568245     -19933.935      46.080483      63.640209      52.786238     -19996.835      0              167.21695     -45.461631     -19698.449     -19652.987    
    943000   943000         2126.6924      549.77259      41.67951      -644.51868     -19781.937      103.24236     -19831.887     -37.596606      95.137395     -19938.66       34.414723      69.547124      49.280561     -19996.201      0              156.72364     -19.975662     -19698.67      -19678.694    
    944000   944000         2070.1624      565.76737      42.892111     -764.73051     -19769.196      106.24604     -19844.715     -40.330848      96.580684     -19940.798      46.431636      68.723668      51.781792     -19997.048      0              171.60235     -35.437497     -19698.387     -19662.95     
    945000   945000         2147.3211      745.27349      56.500878      137.18313     -19772.107      139.95568     -19599.544     -37.365354      97.929244     -19936.445      37.29948       77.097393      46.314477     -19997.009      0              164.33844     -66.384102     -19698.535     -19632.151    
    946000   946000         2126.4806      788.18011      59.753727     -340.54486     -19764.365      148.01316     -19697.295     -32.492394      95.724348     -19933.437      59.452235      75.607038      31.656861     -19996.669      0              169.07204     -81.725204     -19698.077     -19616.352    
    947000   947000         2069.9986      709.10755      53.759056     -1252.2709     -19768.985      133.16404     -19933.467     -36.347754      94.824559     -19937.437      44.528427      86.028208      35.121765     -19995.914      0              168.45209     -62.460674     -19698.281     -19635.821    
    948000   948000         2070.6408      720.31883      54.609009     -404.7606      -19764.128      135.26942     -19725.064     -35.494739      98.928202     -19933.863      40.768707      87.351443      39.164991     -19997.297      0              169.73501     -69.286682     -19698.145     -19628.859    
    949000   949000         2152.955       740.73905      56.157112      317.54247     -19767.095      139.10415     -19552.516     -32.4109        96.934372     -19932.448      67.37274       59.755747      35.34052      -19996.972      0              165.35347     -69.734532     -19697.725     -19627.991    
    950000   950000         2120.8304      678.93936      51.471937     -764.25329     -19758.481      127.49872     -19812.634     -37.83757       101.47123     -19933.562      67.885156      66.439324      37.719335     -19997.196      0              175.08171     -67.042123     -19698.024     -19630.982    
    951000   951000         2159.3644      764.72903      57.975847     -135.32033     -19772.691      143.60926     -19661.246     -31.692761      98.098392     -19931.343      54.121635      80.102058      23.088009     -19997.749      0              158.65205     -69.209463     -19698.292     -19629.082    
    952000   952000         2206.2886      598.12771      45.345422     -898.54789     -19782.652      112.32302     -19883.901     -35.846285      99.21137      -19933.268      39.590323      79.063899      30.269886     -19996.634      0              150.6163      -28.358091     -19698.687     -19670.329    
    953000   953000         2126.5618      784.84371      59.500787      364.05357     -19764.609      147.38661     -19530.692     -30.747961      95.169115     -19933.911      58.466377      68.507671      39.576984     -19998.332      0              169.30153     -81.286354     -19698.509     -19617.222    
    954000   954000         2113.3425      729.4164       55.298716     -1877.4797     -19760.91       136.97786     -20070.181     -42.537017      99.118256     -19940.305      67.743266      76.454577      32.803114     -19996.886      0              179.3955      -74.115615     -19698.048     -19623.932    
    955000   955000         2153.5532      646.72836      49.029948     -553.19147     -19765.707      121.44979     -19775.743     -43.442584      96.520762     -19944.413      50.565231      84.653092      40.479264     -19997.491      0              178.70609     -54.16188      -19698.419     -19644.257    
    956000   956000         2137.0438      658.41533      49.915963     -817.33502     -19778.41       123.64449     -19849.034     -42.113565      95.990705     -19944.254      75.462222      61.0558        27.346971     -19998.131      0              165.84445     -43.712907     -19698.478     -19654.765    
    957000   957000         2161.751       666.47018      50.52662      -761.66541     -19748.765      125.15712     -19804.644     -34.872442      97.488344     -19933.598      59.878966      89.738482      32.687073     -19996.214      0              184.83276     -74.29404      -19697.902     -19623.608    
    958000   958000         2164.813       681.51695      51.66735      -1681.3499     -19771.832      127.98277     -20043.482     -43.039999      97.013925     -19942.608      70.592826      59.898461      37.341176     -19996.582      0              170.77511     -54.8449       -19698.695     -19643.85     
    959000   959000         2197.121       711.87952      53.969205     -909.2688      -19774.087      133.68459     -19856.522     -38.32342       96.114574     -19941.272      69.877507      62.109219      32.776751     -19999.063      0              167.18492     -57.532142     -19697.934     -19640.402    
    960000   960000         2178.7265      688.70494      52.212288     -351.86011     -19756.868      129.33261     -19711.168     -35.713665      97.605207     -19936.544      60.459922      77.569892      38.385007     -19998.435      0              179.67547     -70.468033     -19698.004     -19627.536    
    961000   961000         2196.8986      661.31216      50.135579     -301.15266     -19768.185      124.18849     -19715.576     -35.699219      96.651227     -19936.749      57.773484      79.355236      29.031313     -19997.701      0              168.56364     -54.386347     -19698.383     -19643.997    
    962000   962000         2222.645       701.07007      53.149716     -459.24507     -19738.436      131.65467     -19715.937     -31.606407      100.25473     -19927.47       66.801123      78.361846      40.361439     -19996.119      0              189.03471     -90.74837      -19697.529     -19606.781    
    963000   963000         2159.3829      657.58218      49.852801     -880.90549     -19772.635      123.48804     -19858.525     -42.578407      97.102736     -19943.962      63.150957      72.222826      32.849637     -19998.486      0              171.32684     -48.96074      -19698.108     -19649.147    
    964000   964000         2167.833       620.94891      47.075549     -664.42508     -19771.015      116.60864     -19812.331     -34.340906      98.486339     -19933.466      58.713273      72.316477      29.142811     -19997.611      0              162.45026     -43.756644     -19698.163     -19654.407    
    965000   965000         2188.7638      804.51582      60.992174     -742.63889     -19769.71       151.08086     -19795.144     -40.687599      97.724758     -19940.244      49.054148      73.118552      44.070215     -19997.282      0              170.53444     -79.721424     -19698.351     -19618.629    
    966000   966000         2152.1285      657.87194      49.874768      65.561398     -19777.457      123.54245     -19638.331     -36.19131       100.97965     -19932.016      44.11974       79.718513      28.364788     -19996.804      0              154.55928     -44.505667     -19698.42      -19653.914    
    967000   967000         2137.1134      708.03161      53.677487     -770.87144     -19747.571      132.96199     -19797.833     -28.169705      95.961575     -19928.56       49.989778      81.451815      45.431383     -19996.352      0              180.98958     -82.909864     -19697.518     -19614.609    
    968000   968000         2112.5089      717.03215      54.359838      171.5066      -19769.943      134.65221     -19594.527     -31.78789       99.214093     -19929.726      56.459226      66.073152      34.458825     -19997.152      0              159.78248     -63.194239     -19698.486     -19635.291    
    969000   969000         2112.7457      608.28982      46.115835     -252.07354     -19767.539      114.23137     -19713.222     -39.475052      101.77185     -19935.577      53.496366      69.732114      41.191072     -19997.874      0              168.03764     -44.780736     -19698.088     -19653.308    
    970000   970000         2093.5693      738.00865      55.950114      233.90839     -19761.559      138.59141     -19567.371     -35.340547      96.401576     -19936.208      49.589444      87.039666      35.822501     -19997.269      0              174.64956     -74.848649     -19697.816     -19622.967    
    971000   971000         2118.4657      695.31749      52.7136       -989.43418     -19754.033      130.57439     -19858.633     -40.438334      96.139357     -19941.257      63.674184      75.999237      44.40552      -19996.958      0              187.22355     -73.988545     -19697.447     -19623.459    
    972000   972000         2110.174       556.86218      42.216988     -681.60787     -19776.255      104.57372     -19833.69      -36.512054      98.484047     -19934.937      44.990037      72.003899      38.308407     -19996.909      0              158.68203     -26.909443     -19698.591     -19671.682    
    973000   973000         2077.8729      781.48455      59.246121     -1181.2609     -19766.339      146.75579     -19900.351     -39.515534      97.912424     -19939.034      60.568802      72.093098      37.241684     -19997.431      0              172.69486     -78.220623     -19697.804     -19619.583    
    974000   974000         2106.0491      637.53798      48.333204     -1079.6342     -19768.345      119.72392     -19905.234     -45.199641      98.411717     -19944.654      51.932782      77.236571      43.437718     -19997.866      0              176.30869     -49.545841     -19698.167     -19648.621    
    975000   975000         2101.7921      658.76792      49.942694     -638.08747     -19770.118      123.71071     -19798.072     -42.861655      95.645226     -19944.499      75.937009      58.381377      37.248274     -19997.283      0              174.38103     -51.521457     -19697.929     -19646.408    
    976000   976000         2142.5484      819.88656      62.157465     -1482.8266     -19790.287      153.96734     -19988.766     -42.189759      101.23729     -19940.654      57.192314      61.70311       28.671784     -19999.701      0              150.36634     -62.305597     -19698.626     -19636.32     
    977000   977000         2153.4202      736.40084      55.828222      68.742281     -19778.235      138.28947     -19623.606     -33.523518      96.294978     -19935.916      53.559854      69.33946       32.199377     -19998.687      0              157.68098     -58.610083     -19698.555     -19639.945    
    978000   978000         2104.3939      697.54975      52.882833     -866.99396     -19768.781      130.99359     -19843.859     -43.339194      101.95725     -19939.788      53.249003      81.679597      33.540035     -19998.406      0              171.00729     -60.149783     -19697.937     -19637.788    
    979000   979000         2093.0191      685.98185      52.005844     -527.95747     -19767.427      128.82124     -19764.094     -40.632916      97.893284     -19941.142      68.482276      71.513653      31.343118     -19998.402      0              173.71473     -59.322358     -19697.928     -19638.606    
    980000   980000         2121.6528      713.1576       54.0661       -507.07984     -19747.73       133.9246      -19734.331     -35.314239      97.3034       -19934.651      62.525321      66.040328      54.084314     -19996.64       0              186.92123     -83.835821     -19697.641     -19613.805    
    981000   981000         2171.4283      621.53356      47.119873     -809.85893     -19753.342      116.71843     -19829.115     -34.286449      100.12426     -19930.226      51.46951       74.874148      47.286851     -19996.063      0              176.88406     -61.747534     -19698.371     -19636.623    
    982000   982000         2149.9565      722.13633      54.746798     -310.92903     -19773.196      135.61073     -19711.488     -37.48663       97.62885      -19935.412      60.98059       59.870103      38.059895     -19995.554      0              162.21601     -60.341192     -19697.926     -19637.585    
    983000   983000         2124.7859      693.51386      52.576863     -686.14328     -19736.268      130.23569     -19769.119     -40.732508      98.034083     -19939.203      53.505263      101.77916      45.043517     -19996.504      0              202.93409     -91.353397     -19697.386     -19606.033    
    984000   984000         2107.6204      743.69683      56.381348     -1322.2279     -19783.133      139.6596      -19957.747     -40.889519      99.623045     -19939.031      51.507933      61.023243      40.288383     -19997.765      0              155.89871     -54.903586     -19698.377     -19643.473    
    985000   985000         2140.6096      760.75819      57.674808      348.79021     -19764.861      142.86357     -19539.095     -32.406484      97.42097      -19932.218      51.954772      64.351935      48.424923     -19997.232      0              167.35645     -75.83953      -19697.837     -19621.998    
    986000   986000         2116.805       595.98637      45.183082     -348.56593     -19765.462      111.9209      -19736.39      -35.484184      97.856012     -19936.733      58.4949        71.425979      38.469191     -19999.105      0              171.27136     -44.401039     -19697.942     -19653.541    
    987000   987000         2173.4709      699.94131      53.064142     -470.31622     -19773.805      131.4427      -19754.149     -38.042674      96.02152      -19941.542      56.251215      77.004832      32.002659     -19999.521      0              167.73746     -55.463746     -19697.826     -19642.362    
    988000   988000         2124.6844      718.83117      54.496226     -126.33417     -19753.839      134.99005     -19648.877     -32.314813      99.3954       -19931.122      53.170239      69.389201      50.890213     -19998.202      0              177.28226     -78.758222     -19697.608     -19618.849    
    989000   989000         2189.7207      630.018        47.763098     -800.88558     -19783.872      118.31173     -19855.919     -40.684525      102.1231      -19935.436      40.796812      76.039738      32.188157     -19996.875      0              151.56383     -32.900795     -19698.462     -19665.561    
    990000   990000         2161.9531      628.78945      47.669958     -676.89269     -19756.006      118.08102     -19798.813     -41.899986      97.69664      -19942.224      63.790538      77.214044      42.026033     -19998.021      0              186.21767     -59.323174     -19697.248     -19637.925    
    991000   991000         2160.728       717.81587      54.419254     -799.41004     -19754.081      134.79938     -19809.29      -37.219016      97.332696     -19938.05       64.443965      77.701762      38.640056     -19998.163      0              183.96838     -78.729146     -19698.011     -19619.282    
    992000   992000         2134.6952      769.38439      58.32878       244.59963     -19780.741      144.48349     -19578.12      -36.373829      101.20355     -19931.565      46.471975      71.679237      30.428019     -19996.395      0              150.82411     -62.189497     -19698.447     -19636.257    
    993000   993000         2125.6806      777.80058      58.966831     -343.59775     -19757.256      146.06398     -19692.86      -33.30249       99.388017     -19932.132      58.630131      67.748336      45.768339     -19998.218      0              174.87593     -86.745421     -19697.938     -19611.192    
    994000   994000         2129.3564      651.66174      49.403959     -168.26738     -19781.871      122.37623     -19699.49      -37.628904      96.425431     -19940.061      47.216856      70.591034      37.485312     -19998.858      0              158.19013     -38.814172     -19698.309     -19659.495    
    995000   995000         2092.183       736.93077      55.868397     -1545.9545     -19780.097      138.38899     -20009.159     -49.00397       98.809198     -19946.977      39.545504      91.38718       33.685942     -19996.782      0              166.88029     -56.698966     -19698.407     -19641.708    
    996000   996000         2093.1269      746.1218       56.56519      -579.02046     -19753.1        140.11498     -19750.61      -40.407576      97.312978     -19941.113      67.268627      80.658318      36.005347     -19998.018      0              188.01289     -84.95971      -19697.945     -19612.985    
    997000   997000         2141.4142      700.07642      53.074385     -257.1597      -19769.538      131.46807     -19699.193     -37.430825      98.427249     -19937.386      65.340926      67.841119      32.111409     -19998.383      0              167.84805     -59.523497     -19697.594     -19638.07     
    998000   998000         2126.1836      756.9401       57.385351     -246.4904      -19752.078      142.14656     -19668.518     -33.28354       98.931962     -19931.544      58.425706      72.745799      44.979267     -19997.192      0              179.46629     -88.39061      -19698.322     -19609.931    
    999000   999000         2154.2347      676.63678      51.297373     -525.19294     -19766.37       127.06632     -19764.135     -35.936958      96.37801      -19937.44       55.012719      81.874492      32.191151     -19997.881      0              171.06924     -58.661161     -19697.965     -19639.304    
   1000000   1000000        2164.014       729.93564      55.338081     -146.74527     -19786.946      137.07537     -19684.75      -41.795596      98.084273     -19942.805      53.096057      65.226295      35.645642     -19999.094      0              155.85955     -48.704419     -19698.575     -19649.871    
Loop time of 467.392 on 16 procs for 1000000 steps with 832 atoms

Performance: 184.856 ns/day, 0.130 hours/ns, 2139.532 timesteps/s, 1.780 Matom-step/s
88.4% CPU use with 16 MPI tasks x 1 OpenMP threads

MPI task timing breakdown:
Section |  min time  |  avg time  |  max time  |%varavg| %total
---------------------------------------------------------------
Pair    | 36.76      | 44.413     | 53.31      |  61.2 |  9.50
Bond    | 2.6083     | 3.6541     | 5.3225     |  32.3 |  0.78
Kspace  | 203.45     | 213.78     | 220.14     |  27.6 | 45.74
Neigh   | 30.322     | 30.355     | 30.4       |   0.4 |  6.49
Comm    | 150.48     | 152.85     | 157.21     |  14.8 | 32.70
Output  | 0.25483    | 0.79341    | 1.3052     |  35.5 |  0.17
Modify  | 6.3056     | 8.2904     | 10.335     |  47.6 |  1.77
Other   |            | 13.25      |            |       |  2.84

Nlocal:             52 ave          58 max          48 min
Histogram: 6 0 1 1 1 0 1 2 2 2
Nghost:        2558.56 ave        2588 max        2520 min
Histogram: 1 3 3 0 0 0 2 0 3 4
Neighs:        2236.69 ave        3749 max         983 min
Histogram: 6 0 1 2 0 1 0 1 3 2

Total # of neighbors = 35787
Ave neighs/atom = 43.013221
Ave special neighs/atom = 7.8076923
Neighbor list builds = 21050
Dangerous builds = 0
System init for write_data ...
PPPM initialization ...
  using 12-bit tables for long-range coulomb (src/kspace.cpp:342)
  G vector (1/distance) = 0.229178
  grid = 12 12 15
  stencil order = 5
  estimated absolute RMS force accuracy = 0.017901907
  estimated relative force accuracy = 5.391106e-05
  using double precision FFTW3
  3d grid and FFT values/proc = 1210 144
Generated 153 of 153 mixed pair_coeff terms from arithmetic mixing rule
WARNING: Neighbor exclusions used with KSpace solver may give inconsistent Coulombic energies (src/neighbor.cpp:654)
Total wall time: 0:07:47
