LAMMPS data file via write_data, version 17 Apr 2024, timestep = 100000, units = real

832 atoms
18 atom types
1092 bonds
18 bond types
2156 angles
29 angle types
160 dihedrals
40 dihedral types
32 impropers
8 improper types

-12.46485 12.46485 xlo xhi
-12.46485 12.46485 ylo yhi
-13.1118 13.1118 zlo zhi
0 0 0 xy xz yz

Masses

1 15.9994
2 28.0855
3 1.008
4 12.011
5 12.011
6 12.011
7 1.008
8 14.007
9 1.008
10 12.011
11 12.011
12 1.008
13 12.011
14 1.008
15 12.011
16 1.008
17 12.011
18 1.008

PairIJ Coeffs # lj/cut/coul/long

1 1 0.054 3.47 12
1 2 0.0708661 3.81 12
1 3 0.0402492 2.945 12
1 4 0.0614817 3.51 12
1 5 0.0614817 3.51 12
1 6 0.0614817 3.51 12
1 7 0.0402492 2.945 12
1 8 0.0958123 3.36 12
1 9 0 1.735 12
1 10 0.0657267 3.485 12
1 11 0.0614817 3.51 12
1 12 0.0402492 2.945 12
1 13 0.0614817 3.51 12
1 14 0.0402492 2.945 12
1 15 0.0614817 3.51 12
1 16 0.0402492 2.945 12
1 17 0.0614817 3.51 12
1 18 0.0402492 2.945 12
2 2 0.093 4.15 12
2 3 0.0528205 3.285 12
2 4 0.0806846 3.85 12
2 5 0.0806846 3.85 12
2 6 0.0806846 3.85 12
2 7 0.0528205 3.285 12
2 8 0.125738 3.7 12
2 9 0 2.075 12
2 10 0.0862554 3.825 12
2 11 0.0806846 3.85 12
2 12 0.0528205 3.285 12
2 13 0.0806846 3.85 12
2 14 0.0528205 3.285 12
2 15 0.0806846 3.85 12
2 16 0.0528205 3.285 12
2 17 0.0806846 3.85 12
2 18 0.0528205 3.285 12
3 3 0.03 2.42 12
3 4 0.0458258 2.985 12
3 5 0.0458258 2.985 12
3 6 0.0458258 2.985 12
3 7 0.03 2.42 12
3 8 0.0714143 2.835 12
3 9 0 1.21 12
3 10 0.0489898 2.96 12
3 11 0.0458258 2.985 12
3 12 0.03 2.42 12
3 13 0.0458258 2.985 12
3 14 0.03 2.42 12
3 15 0.0458258 2.985 12
3 16 0.03 2.42 12
3 17 0.0458258 2.985 12
3 18 0.03 2.42 12
4 4 0.07 3.55 12
4 5 0.07 3.55 12
4 6 0.07 3.55 12
4 7 0.0458258 2.985 12
4 8 0.109087 3.4 12
4 9 0 1.775 12
4 10 0.0748331 3.525 12
4 11 0.07 3.55 12
4 12 0.0458258 2.985 12
4 13 0.07 3.55 12
4 14 0.0458258 2.985 12
4 15 0.07 3.55 12
4 16 0.0458258 2.985 12
4 17 0.07 3.55 12
4 18 0.0458258 2.985 12
5 5 0.07 3.55 12
5 6 0.07 3.55 12
5 7 0.0458258 2.985 12
5 8 0.109087 3.4 12
5 9 0 1.775 12
5 10 0.0748331 3.525 12
5 11 0.07 3.55 12
5 12 0.0458258 2.985 12
5 13 0.07 3.55 12
5 14 0.0458258 2.985 12
5 15 0.07 3.55 12
5 16 0.0458258 2.985 12
5 17 0.07 3.55 12
5 18 0.0458258 2.985 12
6 6 0.07 3.55 12
6 7 0.0458258 2.985 12
6 8 0.109087 3.4 12
6 9 0 1.775 12
6 10 0.0748331 3.525 12
6 11 0.07 3.55 12
6 12 0.0458258 2.985 12
6 13 0.07 3.55 12
6 14 0.0458258 2.985 12
6 15 0.07 3.55 12
6 16 0.0458258 2.985 12
6 17 0.07 3.55 12
6 18 0.0458258 2.985 12
7 7 0.03 2.42 12
7 8 0.0714143 2.835 12
7 9 0 1.21 12
7 10 0.0489898 2.96 12
7 11 0.0458258 2.985 12
7 12 0.03 2.42 12
7 13 0.0458258 2.985 12
7 14 0.03 2.42 12
7 15 0.0458258 2.985 12
7 16 0.03 2.42 12
7 17 0.0458258 2.985 12
7 18 0.03 2.42 12
8 8 0.17 3.25 12
8 9 0 1.625 12
8 10 0.116619 3.375 12
8 11 0.109087 3.4 12
8 12 0.0714143 2.835 12
8 13 0.109087 3.4 12
8 14 0.0714143 2.835 12
8 15 0.109087 3.4 12
8 16 0.0714143 2.835 12
8 17 0.109087 3.4 12
8 18 0.0714143 2.835 12
9 9 0 0 12
9 10 0 1.75 12
9 11 0 1.775 12
9 12 0 1.21 12
9 13 0 1.775 12
9 14 0 1.21 12
9 15 0 1.775 12
9 16 0 1.21 12
9 17 0 1.775 12
9 18 0 1.21 12
10 10 0.08 3.5 12
10 11 0.0748331 3.525 12
10 12 0.0489898 2.96 12
10 13 0.0748331 3.525 12
10 14 0.0489898 2.96 12
10 15 0.0748331 3.525 12
10 16 0.0489898 2.96 12
10 17 0.0748331 3.525 12
10 18 0.0489898 2.96 12
11 11 0.07 3.55 12
11 12 0.0458258 2.985 12
11 13 0.07 3.55 12
11 14 0.0458258 2.985 12
11 15 0.07 3.55 12
11 16 0.0458258 2.985 12
11 17 0.07 3.55 12
11 18 0.0458258 2.985 12
12 12 0.03 2.42 12
12 13 0.0458258 2.985 12
12 14 0.03 2.42 12
12 15 0.0458258 2.985 12
12 16 0.03 2.42 12
12 17 0.0458258 2.985 12
12 18 0.03 2.42 12
13 13 0.07 3.55 12
13 14 0.0458258 2.985 12
13 15 0.07 3.55 12
13 16 0.0458258 2.985 12
13 17 0.07 3.55 12
13 18 0.0458258 2.985 12
14 14 0.03 2.42 12
14 15 0.0458258 2.985 12
14 16 0.03 2.42 12
14 17 0.0458258 2.985 12
14 18 0.03 2.42 12
15 15 0.07 3.55 12
15 16 0.0458258 2.985 12
15 17 0.07 3.55 12
15 18 0.0458258 2.985 12
16 16 0.03 2.42 12
16 17 0.0458258 2.985 12
16 18 0.03 2.42 12
17 17 0.07 3.55 12
17 18 0.0458258 2.985 12
18 18 0.03 2.42 12

Bond Coeffs # harmonic

1 285 1.68
2 367 1.08
3 469 1.424
4 546 1.367
5 367 1.08
6 427 1.381
7 434 1.01
8 469 1.424
9 469 1.4
10 367 1.08
11 469 1.404
12 367 1.08
13 469 1.4
14 367 1.08
15 469 1.4
16 367 1.08
17 436 1.374
18 469 1.4

Angle Coeffs # harmonic

1 100 149
2 100 109.5
3 35 127.5
4 35 125.7
5 35 132.1
6 70 107.7
7 35 120
8 70 107.3
9 63 120
10 35 120
11 85 134.9
12 35 120
13 63 120
14 35 120
15 63 120
16 35 120
17 35 121.6
18 35 120
19 35 120
20 70 107.7
21 35 120
22 63 120
23 70 107.3
24 63 120
25 30 125.8
26 63 120
27 70 109.8
28 70 108.7
29 35 120

Dihedral Coeffs # opls

1 0 7.25 0 0
2 0 5 0 0
3 0 7.25 0 0
4 0 7.25 0 0
5 0 7.25 0 0
6 0 7.25 0 0
7 0 2.17 0 0
8 0 2.17 0 0
9 0 7 0 0
10 0 7.25 0 0
11 0 7.25 0 0
12 0 7.25 0 0
13 0 7.25 0 0
14 0 7.25 0 0
15 0 7.25 0 0
16 0 7.25 0 0
17 0 5 0 0
18 0 7.25 0 0
19 0 2.17 0 0
20 0 7 0 0
21 0 7.25 0 0
22 0 7.25 0 0
23 0 7.25 0 0
24 0 7.25 0 0
25 0 7.25 0 0
26 0 7.25 0 0
27 0 7.25 0 0
28 0 7.25 0 0
29 0 7.25 0 0
30 0 7.25 0 0
31 0 7.25 0 0
32 0 2.17 0 0
33 0 7.25 0 0
34 0 5 0 0
35 0 5 0 0
36 0 5 0 0
37 0 7.25 0 0
38 0 7.25 0 0
39 0 5 0 0
40 0 2.17 0 0

Improper Coeffs # cvff

1 2.5 -1 2
2 2.5 -1 2
3 2.5 -1 2
4 2.5 -1 2
5 2.5 -1 2
6 2.5 -1 2
7 2.5 -1 2
8 2.5 -1 2

Atoms # full

599 444 1 -0.55 -10.42385 -10.19126 -11.55412 1 1 1
600 444 1 -0.55 -0.31012000000001017 -10.49266 -10.549750000000003 1 1 1
601 444 1 -0.55 -12.182650000000004 -8.195390000000003 -11.60368 1 1 1
602 444 1 -0.55 -10.432080000000003 -6.191540000000002 -11.545730000000006 1 1 1
603 444 1 -0.55 -0.3213399999999993 -5.9068400000000025 -10.545820000000004 1 1 1
604 444 1 -0.55 -8.055530000000008 -10.553740000000003 -10.555000000000003 1 1 1
605 444 1 -0.55 -8.724650000000004 -8.186410000000002 -11.343020000000005 1 1 1
607 444 1 -0.55 -8.067750000000004 -5.837540000000006 -10.527200000000008 1 1 1
608 444 1 -0.55 -8.31505 -6.285769999999999 -13.102360000000001 1 1 1
609 444 1 -0.55 -5.50822 -10.357790000000003 -11.030700000000007 1 1 1
610 444 1 -0.55 -4.107670000000001 -8.157000000000002 -11.342230000000008 1 1 1
611 444 1 -0.55 -2.873400000000002 -10.42036 -11.01889 1 1 1
612 444 1 -0.55 -5.520929999999998 -5.960190000000008 -11.044590000000005 1 1 1
613 444 1 -0.55 -2.8878600000000105 -5.884900000000004 -11.016800000000003 1 1 1
614 444 2 1.1 -11.95977 -9.775429999999998 -11.724830000000003 1 1 1
615 444 2 1.1 -11.965260000000002 -6.615840000000007 -11.721950000000003 1 1 1
616 444 2 1.1 -8.889930000000001 -9.743770000000005 -11.656650000000004 1 1 1
617 444 2 1.1 -8.894670000000007 -6.628810000000004 -11.646949999999999 1 1 1
618 444 2 1.1 -4.174980000000003 -9.735550000000003 -11.635940000000005 1 1 1
619 444 2 1.1 -4.180710000000005 -6.580940000000007 -11.644850000000002 1 1 1
620 444 2 1.1 -6.598640000000007 -10.5839 -9.881310000000003 1 1 1
650 444 1 -0.55 -2.298020000000003 -8.15874 -6.561410000000009 1 1 1
709 444 1 -0.55 -2.1606600000000054 -1.927810000000008 -8.207460000000005 1 1 1
710 444 1 -0.55 -1.8592600000000061 -12.041540000000003 -9.21183 1 1 1
711 444 1 -0.55 -4.156530000000005 -0.16927000000000447 -8.157900000000003 1 1 1
712 444 1 -0.55 -6.160380000000008 -1.9198400000000024 -8.21585 1 1 1
713 444 1 -0.55 -6.445070000000004 -12.030570000000003 -9.21576 1 1 1
714 444 1 -0.55 -1.7979300000000027 -4.296130000000007 -9.206580000000006 1 1 1
715 444 1 -0.55 -4.165250000000002 -3.6272700000000064 -8.418300000000004 1 1 1
716 444 1 -0.55 -2.298020000000003 -4.040600000000003 -6.644270000000002 1 1 1
717 444 1 -0.55 -6.514380000000004 -4.284170000000005 -9.234380000000003 1 1 1
718 444 1 -0.55 -6.066140000000008 -4.036869999999999 -6.659220000000003 1 1 1
719 444 1 -0.55 -1.9941300000000055 -6.8437000000000054 -8.730620000000005 1 1 1
720 444 1 -0.55 -4.194670000000006 -8.244250000000003 -8.41909 1 1 1
721 444 1 -0.55 -1.9315499999999997 -9.478520000000007 -8.74269 1 1 1
722 444 1 -0.55 -6.39148 -6.830990000000001 -8.716990000000004 1 1 1
723 444 1 -0.55 -6.467010000000005 -9.463810000000006 -8.744780000000006 1 1 1
724 444 2 1.1 -2.576480000000002 -0.3921400000000066 -8.03648 1 1 1
725 444 2 1.1 -5.736070000000005 -0.3866600000000009 -8.039630000000006 1 1 1
726 444 2 1.1 -2.6079000000000043 -3.461739999999999 -8.10493 1 1 1
727 444 2 1.1 -5.7231100000000055 -3.4570000000000007 -8.114630000000002 1 1 1
728 444 2 1.1 -2.616120000000004 -8.176940000000005 -8.12564 1 1 1
729 444 2 1.1 -5.770730000000002 -8.170960000000001 -8.116730000000004 1 1 1
730 444 2 1.1 -1.7677600000000044 -5.753280000000003 -9.88027 1 1 1
759 444 1 -0.55 -2.076140000000006 -12.332220000000005 -6.602840000000009 1 1 1
760 444 1 -0.55 -6.236660000000002 -12.332220000000005 -6.602840000000009 1 1 1
763 444 2 1.1 -6.603130000000005 -5.748790000000001 -9.880790000000001 1 1 1
764 444 2 1.1 -1.7622800000000076 -10.589640000000003 -9.880790000000001 1 1 1
816 2 18 0.148 -9.112109004985564 -2.608801122080944 -11.527466629035581 1 0 1
815 2 17 -0.1211 -10.035706081111826 -2.4316439577303264 -12.042074684730975 1 0 1
812 2 14 0.1434 -11.267939380078541 -3.3480973778899283 -10.612203406436494 1 0 1
811 2 13 -0.1682 -11.294512176609835 -2.830043241976103 -11.577297889223692 1 0 1
808 2 10 0.1202 -12.37574919059167 -2.7315050218470134 -12.400814670637338 1 0 1
561 444 1 -0.55 -0.019690000000004204 -1.923820000000001 -0.046939999999999316 0 1 0
562 444 1 -0.55 -0.019690000000004204 -6.084090000000005 -0.046939999999999316 0 1 0
584 444 1 -0.55 -4.193170000000002 -2.145450000000002 -0.0055100000000027904 1 1 0
643 444 1 -0.55 -2.1606600000000054 -10.271530000000004 -4.998220000000002 1 1 1
644 444 1 -0.55 -1.8592600000000061 -0.1578000000000035 -3.993850000000009 1 1 1
645 444 1 -0.55 -4.156530000000005 -12.03008 -5.0477799999999995 1 1 1
646 444 1 -0.55 -6.160380000000008 -10.279510000000005 -4.989830000000005 1 1 1
647 444 1 -0.55 -6.445070000000004 -0.16877000000000386 -3.989920000000007 1 1 1
648 444 1 -0.55 -1.7979300000000027 -7.9032100000000005 -3.999100000000004 1 1 1
649 444 1 -0.55 -4.165250000000002 -8.572080000000001 -4.787120000000007 1 1 1
651 444 1 -0.55 -6.514380000000004 -7.915430000000002 -3.9713000000000065 1 1 1
652 444 1 -0.55 -6.066140000000008 -8.16248 -6.546460000000001 1 1 1
653 444 1 -0.55 -1.9941300000000055 -5.355650000000007 -4.474800000000009 1 1 1
654 444 1 -0.55 -4.194670000000006 -3.9551000000000034 -4.786330000000007 1 1 1
655 444 1 -0.55 -1.9315499999999997 -2.720830000000001 -4.46299 1 1 1
656 444 1 -0.55 -6.39148 -5.368360000000005 -4.488690000000005 1 1 1
657 444 1 -0.55 -6.467010000000005 -2.735540000000004 -4.460900000000004 1 1 1
658 444 2 1.1 -2.576480000000002 -11.807200000000003 -5.168930000000002 1 1 1
659 444 2 1.1 -5.736070000000005 -11.812690000000003 -5.166050000000004 1 1 1
660 444 2 1.1 -2.6079000000000043 -8.737610000000005 -5.100750000000003 1 1 1
661 444 2 1.1 -5.7231100000000055 -8.742350000000005 -5.091050000000013 1 1 1
662 444 2 1.1 -2.616120000000004 -4.0224100000000025 -5.080040000000002 1 1 1
663 444 2 1.1 -5.770730000000002 -4.0283900000000035 -5.0889500000000005 1 1 1
664 444 2 1.1 -1.7677600000000044 -6.44632 -3.325410000000007 1 1 1
665 444 1 -0.55 -10.42385 -2.0080900000000046 -1.6515600000000035 1 1 1
666 444 1 -0.55 -0.31012000000001017 -1.7066900000000054 -2.6559299999999997 1 1 1
667 444 1 -0.55 -12.182650000000004 -4.0039599999999975 -1.6020000000000039 1 1 1
668 444 1 -0.55 -10.432080000000003 -6.008060000000001 -1.6599500000000038 1 1 1
669 444 1 -0.55 -0.3213399999999993 -6.292500000000006 -2.6598600000000054 1 1 1
670 444 1 -0.55 -8.055530000000008 -1.6456100000000085 -2.6506800000000084 1 1 1
671 444 1 -0.55 -8.724650000000004 -4.012930000000006 -1.8624000000000027 1 1 1
672 444 1 -0.55 -8.311309999999999 -2.145450000000002 -0.08837000000000472 1 1 1
673 444 1 -0.55 -8.067750000000004 -6.362060000000003 -2.678480000000002 1 1 1
674 444 1 -0.55 -8.31505 -5.913570000000003 -0.10332000000000185 1 1 1
675 444 1 -0.55 -5.50822 -1.8418100000000042 -2.1747200000000024 1 1 1
676 444 1 -0.55 -4.107670000000001 -4.042349999999999 -1.8631900000000012 1 1 1
677 444 1 -0.55 -2.873400000000002 -1.7792300000000036 -2.1867900000000127 1 1 1
678 444 1 -0.55 -5.520929999999998 -6.2391600000000045 -2.161090000000005 1 1 1
679 444 1 -0.55 -2.8878600000000105 -6.314689999999997 -2.188880000000003 1 1 1
680 444 2 1.1 -11.95977 -2.4241600000000005 -1.480579999999998 1 1 1
681 444 2 1.1 -11.965260000000002 -5.583750000000004 -1.4837300000000102 1 1 1
682 444 2 1.1 -8.889930000000001 -2.4555700000000034 -1.549030000000009 1 1 1
683 444 2 1.1 -8.894670000000007 -5.57054 -1.5587299999999988 1 1 1
684 444 2 1.1 -4.174980000000003 -2.4638000000000044 -1.5697400000000012 1 1 1
685 444 2 1.1 -4.180710000000005 -5.618410000000005 -1.5608300000000082 1 1 1
686 444 2 1.1 -6.598640000000007 -1.6154399999999978 -3.3243700000000054 1 1 1
767 444 2 1.1 -6.603130000000005 -6.4505600000000065 -3.3248900000000052 1 1 1
768 444 2 1.1 -1.7622800000000076 -1.6097100000000015 -3.3248900000000052 1 1 1
577 444 1 -0.55 -2.0803800000000088 -2.0080900000000046 1.5576799999999977 1 1 0
578 444 1 -0.55 -12.19411 -1.7066900000000054 2.5620499999999975 1 1 0
579 444 1 -0.55 -0.3215900000000005 -4.0039599999999975 1.50812 1 1 0
580 444 1 -0.55 -2.072410000000003 -6.008060000000001 1.566069999999998 1 1 0
581 444 1 -0.55 -12.18314 -6.292500000000006 2.565979999999996 1 1 0
582 444 1 -0.55 -4.448700000000009 -1.6456100000000085 2.556800000000001 1 1 0
583 444 1 -0.55 -3.779840000000002 -4.012930000000006 1.768779999999996 1 1 0
585 444 1 -0.55 -4.436490000000001 -6.362060000000003 2.5846 1 1 0
586 444 1 -0.55 -4.189440000000008 -5.913570000000003 0.009439999999999671 1 1 0
587 444 1 -0.55 -6.996270000000003 -1.8418100000000042 2.081100000000001 1 1 0
588 444 1 -0.55 -8.396570000000004 -4.042349999999999 1.7695699999999999 1 1 0
589 444 1 -0.55 -9.631089999999999 -1.7792300000000036 2.09291 1 1 0
590 444 1 -0.55 -6.983560000000005 -6.2391600000000045 2.067210000000001 1 1 0
591 444 1 -0.55 -9.616380000000003 -6.314689999999997 2.094999999999999 1 1 0
592 444 2 1.1 -0.5447100000000074 -2.4241600000000005 1.386969999999998 1 1 0
593 444 2 1.1 -0.5389800000000058 -5.583750000000004 1.389850000000001 1 1 0
594 444 2 1.1 -3.6143100000000032 -2.4555700000000034 1.4551499999999997 1 1 0
595 444 2 1.1 -3.6095700000000033 -5.57054 1.4648500000000002 1 1 0
596 444 2 1.1 -8.329509999999997 -2.4638000000000044 1.475859999999999 1 1 0
597 444 2 1.1 -8.323530000000005 -5.618410000000005 1.4669500000000006 1 1 0
598 444 2 1.1 -5.9056 -1.6154399999999978 3.2304900000000014 1 1 0
628 444 1 -0.55 -10.206220000000004 -4.040600000000003 6.550389999999998 1 1 0
731 444 1 -0.55 -10.343830000000004 -10.271530000000004 4.9043399999999995 1 1 0
732 444 1 -0.55 -10.644980000000002 -0.1578000000000035 3.8999700000000015 1 1 0
733 444 1 -0.55 -8.34796 -12.03008 4.9538999999999955 1 1 0
734 444 1 -0.55 -6.3438599999999985 -10.279510000000005 4.895949999999997 1 1 0
735 444 1 -0.55 -6.059160000000004 -0.16877000000000386 3.896039999999994 1 1 0
736 444 1 -0.55 -10.706310000000002 -7.9032100000000005 3.9052200000000017 1 1 0
737 444 1 -0.55 -8.33898 -8.572080000000001 4.6934999999999985 1 1 0
738 444 1 -0.55 -10.206220000000004 -8.15874 6.467529999999998 1 1 0
739 444 1 -0.55 -5.98986 -7.915430000000002 3.877419999999999 1 1 0
740 444 1 -0.55 -6.438340000000004 -8.16248 6.452579999999999 1 1 0
741 444 1 -0.55 -10.510110000000005 -5.355650000000007 4.381179999999999 1 1 0
742 444 1 -0.55 -8.30957 -3.9551000000000034 4.69271 1 1 0
743 444 1 -0.55 -10.572690000000005 -2.720830000000001 4.369110000000001 1 1 0
744 444 1 -0.55 -6.112760000000006 -5.368360000000005 4.394809999999994 1 1 0
745 444 1 -0.55 -6.037220000000003 -2.735540000000004 4.367019999999998 1 1 0
746 444 2 1.1 -9.927750000000005 -11.807200000000003 5.07532 1 1 0
747 444 2 1.1 -6.7681600000000035 -11.812690000000003 5.072169999999998 1 1 0
748 444 2 1.1 -9.896340000000002 -8.737610000000005 5.006870000000001 1 1 0
749 444 2 1.1 -6.781130000000005 -8.742350000000005 4.997169999999999 1 1 0
750 444 2 1.1 -9.88812 -4.0224100000000025 4.98616 1 1 0
751 444 2 1.1 -6.733510000000005 -4.0283900000000035 4.995069999999993 1 1 0
752 444 2 1.1 -10.736470000000002 -6.44632 3.231530000000001 1 1 0
757 444 1 -0.55 -10.428090000000005 -12.332220000000005 6.50896 1 1 0
758 444 1 -0.55 -6.267820000000002 -12.332220000000005 6.50896 1 1 0
761 444 2 1.1 -5.901360000000004 -6.4505600000000065 3.2310099999999995 1 1 0
762 444 2 1.1 -10.742210000000002 -1.6097100000000015 3.2310099999999995 1 1 0
789 2 7 0.1927 -12.090373403618399 -10.639747771704425 2.8928021611204766 0 1 0
563 444 1 -0.55 -0.019690000000004204 -10.275770000000005 13.064859999999998 0 1 0
564 444 1 -0.55 -0.019690000000004204 -6.115250000000004 13.064859999999998 0 1 0
606 444 1 -0.55 -8.311309999999999 -10.053900000000002 13.106289999999992 1 1 0
621 444 1 -0.55 -10.343830000000004 -1.927810000000008 8.113579999999994 1 1 0
622 444 1 -0.55 -10.644980000000002 -12.041540000000003 9.117949999999999 1 1 0
623 444 1 -0.55 -8.34796 -0.16927000000000447 8.064020000000001 1 1 0
624 444 1 -0.55 -6.3438599999999985 -1.9198400000000024 8.12197 1 1 0
625 444 1 -0.55 -6.059160000000004 -12.030570000000003 9.121879999999992 1 1 0
626 444 1 -0.55 -10.706310000000002 -4.296130000000007 9.112699999999998 1 1 0
627 444 1 -0.55 -8.33898 -3.6272700000000064 8.324680000000003 1 1 0
629 444 1 -0.55 -5.98986 -4.284170000000005 9.140499999999998 1 1 0
630 444 1 -0.55 -6.438340000000004 -4.036869999999999 6.565340000000001 1 1 0
631 444 1 -0.55 -10.510110000000005 -6.8437000000000054 8.637000000000002 1 1 0
632 444 1 -0.55 -8.30957 -8.244250000000003 8.325469999999997 1 1 0
633 444 1 -0.55 -10.572690000000005 -9.478520000000007 8.64881 1 1 0
634 444 1 -0.55 -6.112760000000006 -6.830990000000001 8.623109999999992 1 1 0
635 444 1 -0.55 -6.037220000000003 -9.463810000000006 8.650899999999995 1 1 0
636 444 2 1.1 -9.927750000000005 -0.3921400000000066 7.942869999999994 1 1 0
637 444 2 1.1 -6.7681600000000035 -0.3866600000000009 7.9457499999999985 1 1 0
638 444 2 1.1 -9.896340000000002 -3.461739999999999 8.011049999999992 1 1 0
639 444 2 1.1 -6.781130000000005 -3.4570000000000007 8.020750000000001 1 1 0
640 444 2 1.1 -9.88812 -8.176940000000005 8.03176 1 1 0
641 444 2 1.1 -6.733510000000005 -8.170960000000001 8.022849999999993 1 1 0
642 444 2 1.1 -10.736470000000002 -5.753280000000003 9.786389999999999 1 1 0
687 444 1 -0.55 -2.0803800000000088 -10.19126 11.46024 1 1 0
688 444 1 -0.55 -12.19411 -10.49266 10.455869999999999 1 1 0
689 444 1 -0.55 -0.3215900000000005 -8.195390000000003 11.509799999999993 1 1 0
690 444 1 -0.55 -2.072410000000003 -6.191540000000002 11.451849999999995 1 1 0
691 444 1 -0.55 -12.18314 -5.9068400000000025 10.451940000000002 1 1 0
692 444 1 -0.55 -4.448700000000009 -10.553740000000003 10.461119999999996 1 1 0
693 444 1 -0.55 -3.779840000000002 -8.186410000000002 11.249399999999993 1 1 0
694 444 1 -0.55 -4.193170000000002 -10.053900000000002 13.02343 1 1 0
695 444 1 -0.55 -4.436490000000001 -5.837540000000006 10.433319999999997 1 1 0
696 444 1 -0.55 -4.189440000000008 -6.285769999999999 13.008479999999997 1 1 0
697 444 1 -0.55 -6.996270000000003 -10.357790000000003 10.937079999999993 1 1 0
698 444 1 -0.55 -8.396570000000004 -8.157000000000002 11.248609999999998 1 1 0
699 444 1 -0.55 -9.631089999999999 -10.42036 10.925009999999999 1 1 0
700 444 1 -0.55 -6.983560000000005 -5.960190000000008 10.950710000000003 1 1 0
701 444 1 -0.55 -9.616380000000003 -5.884900000000004 10.92292 1 1 0
702 444 2 1.1 -0.5447100000000074 -9.775429999999998 11.63122 1 1 0
703 444 2 1.1 -0.5389800000000058 -6.615840000000007 11.628069999999992 1 1 0
704 444 2 1.1 -3.6143100000000032 -9.743770000000005 11.562770000000002 1 1 0
705 444 2 1.1 -3.6095700000000033 -6.628810000000004 11.55307 1 1 0
706 444 2 1.1 -8.329509999999997 -9.735550000000003 11.542059999999994 1 1 0
707 444 2 1.1 -8.323530000000005 -6.580940000000007 11.550970000000001 1 1 0
708 444 2 1.1 -5.9056 -10.5839 9.787429999999999 1 1 0
765 444 2 1.1 -5.901360000000004 -5.748790000000001 9.78691 1 1 0
766 444 2 1.1 -10.742210000000002 -10.589640000000003 9.78691 1 1 0
810 2 12 0.1484 -11.190693397975188 -1.001043409565451 11.177369319734689 1 0 0
809 2 11 -0.0921 -11.145583286758715 -1.7235957277666536 11.985838729017912 1 0 0
814 2 16 0.1471 -9.060598525231955 -1.440949632687623 12.411282222852309 1 0 0
813 2 15 -0.1825 -9.960609320734765 -1.939927494693043 12.836486796041422 1 0 0
803 2 5 -0.0974 -12.335218006207857 -2.368509260769212 12.52720794116532 1 0 0
215 444 1 -0.55 -10.42385 2.2735900000000004 -11.55412 1 0 1
216 444 1 -0.55 -0.31012000000001017 1.9721899999999994 -10.549750000000003 1 0 1
217 444 1 -0.55 -12.182650000000004 4.2694600000000005 -11.60368 1 0 1
218 444 1 -0.55 -10.432080000000003 6.273309999999997 -11.545730000000006 1 0 1
219 444 1 -0.55 -0.3213399999999993 6.558010000000001 -10.545820000000004 1 0 1
220 444 1 -0.55 -8.055530000000008 1.9111100000000008 -10.555000000000003 1 0 1
221 444 1 -0.55 -8.724650000000004 4.278440000000002 -11.343020000000005 1 0 1
223 444 1 -0.55 -8.067750000000004 6.62731 -10.527200000000008 1 0 1
224 444 1 -0.55 -8.31505 6.179080000000001 -13.102360000000001 1 0 1
225 444 1 -0.55 -5.50822 2.1070600000000006 -11.030700000000007 1 0 1
226 444 1 -0.55 -4.107670000000001 4.30785 -11.342230000000008 1 0 1
227 444 1 -0.55 -2.873400000000002 2.04448 -11.01889 1 0 1
228 444 1 -0.55 -5.520929999999998 6.504659999999999 -11.044590000000005 1 0 1
229 444 1 -0.55 -2.8878600000000105 6.579950000000002 -11.016800000000003 1 0 1
230 444 2 1.1 -11.95977 2.6894199999999966 -11.724830000000003 1 0 1
231 444 2 1.1 -11.965260000000002 5.8490099999999945 -11.721950000000003 1 0 1
232 444 2 1.1 -8.889930000000001 2.721079999999999 -11.656650000000004 1 0 1
233 444 2 1.1 -8.894670000000007 5.836039999999999 -11.646949999999999 1 0 1
234 444 2 1.1 -4.174980000000003 2.7293000000000003 -11.635940000000005 1 0 1
235 444 2 1.1 -4.180710000000005 5.883909999999998 -11.644850000000002 1 0 1
236 444 2 1.1 -6.598640000000007 1.8809499999999986 -9.881310000000003 1 0 1
266 444 1 -0.55 -2.298020000000003 4.306110000000002 -6.561410000000009 1 0 1
325 444 1 -0.55 -2.1606600000000054 10.53704 -8.207460000000005 1 0 1
326 444 1 -0.55 -1.8592600000000061 0.42331000000000074 -9.21183 1 0 1
327 444 1 -0.55 -4.156530000000005 12.29558 -8.157900000000003 1 0 1
328 444 1 -0.55 -6.160380000000008 10.545009999999996 -8.21585 1 0 1
329 444 1 -0.55 -6.445070000000004 0.43427999999999756 -9.21576 1 0 1
330 444 1 -0.55 -1.7979300000000027 8.168719999999999 -9.206580000000006 1 0 1
331 444 1 -0.55 -4.165250000000002 8.837579999999997 -8.418300000000004 1 0 1
332 444 1 -0.55 -2.298020000000003 8.424239999999996 -6.644270000000002 1 0 1
333 444 1 -0.55 -6.514380000000004 8.18068 -9.234380000000003 1 0 1
334 444 1 -0.55 -6.066140000000008 8.42798 -6.659220000000003 1 0 1
335 444 1 -0.55 -1.9941300000000055 5.621149999999998 -8.730620000000005 1 0 1
336 444 1 -0.55 -4.194670000000006 4.220599999999999 -8.41909 1 0 1
337 444 1 -0.55 -1.9315499999999997 2.986329999999997 -8.74269 1 0 1
338 444 1 -0.55 -6.39148 5.633859999999993 -8.716990000000004 1 0 1
339 444 1 -0.55 -6.467010000000005 3.001039999999996 -8.744780000000006 1 0 1
340 444 2 1.1 -2.576480000000002 12.072709999999999 -8.03648 1 0 1
341 444 2 1.1 -5.736070000000005 12.078189999999998 -8.039630000000006 1 0 1
342 444 2 1.1 -2.6079000000000043 9.00310999999999 -8.10493 1 0 1
343 444 2 1.1 -5.7231100000000055 9.007849999999996 -8.114630000000002 1 0 1
344 444 2 1.1 -2.616120000000004 4.287910000000002 -8.12564 1 0 1
345 444 2 1.1 -5.770730000000002 4.293889999999999 -8.116730000000004 1 0 1
346 444 2 1.1 -1.7677600000000044 6.711569999999993 -9.88027 1 0 1
375 444 1 -0.55 -2.076140000000006 0.1326300000000007 -6.602840000000009 1 0 1
376 444 1 -0.55 -6.236660000000002 0.1326300000000007 -6.602840000000009 1 0 1
379 444 2 1.1 -6.603130000000005 6.716060000000001 -9.880790000000001 1 0 1
380 444 2 1.1 -1.7622800000000076 1.8752099999999974 -9.880790000000001 1 0 1
826 2 12 0.1484 -8.14561518752613 10.05985626930576 -10.664657355151144 0 0 1
829 2 15 -0.1825 -9.530421256343287 10.340548308122697 -12.229562045349263 0 0 1
830 2 16 0.1471 -10.300913317337212 10.38775135975787 -11.569849858126581 0 0 1
825 2 11 -0.0921 -8.302608058708223 9.955070535810195 -11.749628694306676 0 0 1
817 2 3 0.1747 -5.00804501062209 9.982240042009346 -11.757473984573895 0 0 1
819 2 5 -0.0974 -7.139414867840543 10.000780687462333 -12.660104945035302 0 0 1
818 2 4 -0.2297 -5.755463480373309 10.104207401279838 -12.525106691922042 0 0 1
177 444 1 -0.55 -0.019690000000004204 10.541029999999997 -0.046939999999999316 0 0 0
178 444 1 -0.55 -0.019690000000004204 6.38076 -0.046939999999999316 0 0 0
200 444 1 -0.55 -4.193170000000002 10.319399999999996 -0.0055100000000027904 1 0 0
259 444 1 -0.55 -2.1606600000000054 2.19332 -4.998220000000002 1 0 1
260 444 1 -0.55 -1.8592600000000061 12.307049999999998 -3.993850000000009 1 0 1
261 444 1 -0.55 -4.156530000000005 0.4347700000000003 -5.0477799999999995 1 0 1
262 444 1 -0.55 -6.160380000000008 2.1853399999999983 -4.989830000000005 1 0 1
263 444 1 -0.55 -6.445070000000004 12.296079999999998 -3.989920000000007 1 0 1
264 444 1 -0.55 -1.7979300000000027 4.561639999999995 -3.999100000000004 1 0 1
265 444 1 -0.55 -4.165250000000002 3.8927700000000005 -4.787120000000007 1 0 1
267 444 1 -0.55 -6.514380000000004 4.54942 -3.9713000000000065 1 0 1
268 444 1 -0.55 -6.066140000000008 4.302369999999998 -6.546460000000001 1 0 1
269 444 1 -0.55 -1.9941300000000055 7.1091999999999995 -4.474800000000009 1 0 1
270 444 1 -0.55 -4.194670000000006 8.509749999999999 -4.786330000000007 1 0 1
271 444 1 -0.55 -1.9315499999999997 9.744019999999997 -4.46299 1 0 1
272 444 1 -0.55 -6.39148 7.096490000000001 -4.488690000000005 1 0 1
273 444 1 -0.55 -6.467010000000005 9.729309999999993 -4.460900000000004 1 0 1
274 444 2 1.1 -2.576480000000002 0.6576500000000003 -5.168930000000002 1 0 1
275 444 2 1.1 -5.736070000000005 0.6521599999999967 -5.166050000000004 1 0 1
276 444 2 1.1 -2.6079000000000043 3.7272399999999966 -5.100750000000003 1 0 1
277 444 2 1.1 -5.7231100000000055 3.722500000000002 -5.091050000000013 1 0 1
278 444 2 1.1 -2.616120000000004 8.442439999999996 -5.080040000000002 1 0 1
279 444 2 1.1 -5.770730000000002 8.436460000000002 -5.0889500000000005 1 0 1
280 444 2 1.1 -1.7677600000000044 6.01853 -3.325410000000007 1 0 1
281 444 1 -0.55 -10.42385 10.456760000000001 -1.6515600000000035 1 0 1
282 444 1 -0.55 -0.31012000000001017 10.758160000000002 -2.6559299999999997 1 0 1
283 444 1 -0.55 -12.182650000000004 8.460889999999997 -1.6020000000000039 1 0 1
284 444 1 -0.55 -10.432080000000003 6.456789999999996 -1.6599500000000038 1 0 1
285 444 1 -0.55 -0.3213399999999993 6.172339999999997 -2.6598600000000054 1 0 1
286 444 1 -0.55 -8.055530000000008 10.819239999999999 -2.6506800000000084 1 0 1
287 444 1 -0.55 -8.724650000000004 8.45192 -1.8624000000000027 1 0 1
288 444 1 -0.55 -8.311309999999999 10.319399999999996 -0.08837000000000472 1 0 1
289 444 1 -0.55 -8.067750000000004 6.102790000000001 -2.678480000000002 1 0 1
290 444 1 -0.55 -8.31505 6.55128 -0.10332000000000185 1 0 1
291 444 1 -0.55 -5.50822 10.623039999999994 -2.1747200000000024 1 0 1
292 444 1 -0.55 -4.107670000000001 8.422499999999998 -1.8631900000000012 1 0 1
293 444 1 -0.55 -2.873400000000002 10.685619999999995 -2.1867900000000127 1 0 1
294 444 1 -0.55 -5.520929999999998 6.225689999999995 -2.161090000000005 1 0 1
295 444 1 -0.55 -2.8878600000000105 6.150159999999998 -2.188880000000003 1 0 1
296 444 2 1.1 -11.95977 10.04069 -1.480579999999998 1 0 1
297 444 2 1.1 -11.965260000000002 6.881099999999995 -1.4837300000000102 1 0 1
298 444 2 1.1 -8.889930000000001 10.009269999999995 -1.549030000000009 1 0 1
299 444 2 1.1 -8.894670000000007 6.8943099999999955 -1.5587299999999988 1 0 1
300 444 2 1.1 -4.174980000000003 10.001049999999994 -1.5697400000000012 1 0 1
301 444 2 1.1 -4.180710000000005 6.846439999999996 -1.5608300000000082 1 0 1
302 444 2 1.1 -6.598640000000007 10.84941 -3.3243700000000054 1 0 1
383 444 2 1.1 -6.603130000000005 6.014289999999994 -3.3248900000000052 1 0 1
384 444 2 1.1 -1.7622800000000076 10.855139999999997 -3.3248900000000052 1 0 1
778 2 12 0.1484 -2.117353896114844 2.343906326943708 -1.428383801910897 0 0 0
781 2 15 -0.1825 -0.07921388461097756 1.8228745481035862 -0.7884664258885916 0 0 0
777 2 11 -0.0921 -1.4529032491916603 2.107214394496504 -0.6366479811375729 0 0 0
193 444 1 -0.55 -2.0803800000000088 10.456760000000001 1.5576799999999977 1 0 0
194 444 1 -0.55 -12.19411 10.758160000000002 2.5620499999999975 1 0 0
195 444 1 -0.55 -0.3215900000000005 8.460889999999997 1.50812 1 0 0
196 444 1 -0.55 -2.072410000000003 6.456789999999996 1.566069999999998 1 0 0
197 444 1 -0.55 -12.18314 6.172339999999997 2.565979999999996 1 0 0
198 444 1 -0.55 -4.448700000000009 10.819239999999999 2.556800000000001 1 0 0
199 444 1 -0.55 -3.779840000000002 8.45192 1.768779999999996 1 0 0
201 444 1 -0.55 -4.436490000000001 6.102790000000001 2.5846 1 0 0
202 444 1 -0.55 -4.189440000000008 6.55128 0.009439999999999671 1 0 0
203 444 1 -0.55 -6.996270000000003 10.623039999999994 2.081100000000001 1 0 0
204 444 1 -0.55 -8.396570000000004 8.422499999999998 1.7695699999999999 1 0 0
205 444 1 -0.55 -9.631089999999999 10.685619999999995 2.09291 1 0 0
206 444 1 -0.55 -6.983560000000005 6.225689999999995 2.067210000000001 1 0 0
207 444 1 -0.55 -9.616380000000003 6.150159999999998 2.094999999999999 1 0 0
208 444 2 1.1 -0.5447100000000074 10.04069 1.386969999999998 1 0 0
209 444 2 1.1 -0.5389800000000058 6.881099999999995 1.389850000000001 1 0 0
210 444 2 1.1 -3.6143100000000032 10.009269999999995 1.4551499999999997 1 0 0
211 444 2 1.1 -3.6095700000000033 6.8943099999999955 1.4648500000000002 1 0 0
212 444 2 1.1 -8.329509999999997 10.001049999999994 1.475859999999999 1 0 0
213 444 2 1.1 -8.323530000000005 6.846439999999996 1.4669500000000006 1 0 0
214 444 2 1.1 -5.9056 10.84941 3.2304900000000014 1 0 0
244 444 1 -0.55 -10.206220000000004 8.424239999999996 6.550389999999998 1 0 0
347 444 1 -0.55 -10.343830000000004 2.19332 4.9043399999999995 1 0 0
348 444 1 -0.55 -10.644980000000002 12.307049999999998 3.8999700000000015 1 0 0
349 444 1 -0.55 -8.34796 0.4347700000000003 4.9538999999999955 1 0 0
350 444 1 -0.55 -6.3438599999999985 2.1853399999999983 4.895949999999997 1 0 0
351 444 1 -0.55 -6.059160000000004 12.296079999999998 3.896039999999994 1 0 0
352 444 1 -0.55 -10.706310000000002 4.561639999999995 3.9052200000000017 1 0 0
353 444 1 -0.55 -8.33898 3.8927700000000005 4.6934999999999985 1 0 0
354 444 1 -0.55 -10.206220000000004 4.306110000000002 6.467529999999998 1 0 0
355 444 1 -0.55 -5.98986 4.54942 3.877419999999999 1 0 0
356 444 1 -0.55 -6.438340000000004 4.302369999999998 6.452579999999999 1 0 0
357 444 1 -0.55 -10.510110000000005 7.1091999999999995 4.381179999999999 1 0 0
358 444 1 -0.55 -8.30957 8.509749999999999 4.69271 1 0 0
359 444 1 -0.55 -10.572690000000005 9.744019999999997 4.369110000000001 1 0 0
360 444 1 -0.55 -6.112760000000006 7.096490000000001 4.394809999999994 1 0 0
361 444 1 -0.55 -6.037220000000003 9.729309999999993 4.367019999999998 1 0 0
362 444 2 1.1 -9.927750000000005 0.6576500000000003 5.07532 1 0 0
363 444 2 1.1 -6.7681600000000035 0.6521599999999967 5.072169999999998 1 0 0
364 444 2 1.1 -9.896340000000002 3.7272399999999966 5.006870000000001 1 0 0
365 444 2 1.1 -6.781130000000005 3.722500000000002 4.997169999999999 1 0 0
366 444 2 1.1 -9.88812 8.442439999999996 4.98616 1 0 0
367 444 2 1.1 -6.733510000000005 8.436460000000002 4.995069999999993 1 0 0
368 444 2 1.1 -10.736470000000002 6.01853 3.231530000000001 1 0 0
373 444 1 -0.55 -10.428090000000005 0.1326300000000007 6.50896 1 0 0
374 444 1 -0.55 -6.267820000000002 0.1326300000000007 6.50896 1 0 0
377 444 2 1.1 -5.901360000000004 6.014289999999994 3.2310099999999995 1 0 0
378 444 2 1.1 -10.742210000000002 10.855139999999997 3.2310099999999995 1 0 0
771 2 5 -0.0974 -2.005127795036305 1.987752262376583 0.6285913245903068 0 0 0
769 2 3 0.1747 -4.112393584061293 2.62176941215834 0.5128505954616465 0 0 0
774 2 8 -0.6423 -1.9787496195062388 2.076126119043595 2.7853359157791218 0 0 0
773 2 7 0.1927 -4.1131513070287085 2.4678742296811826 3.1764204606674173 0 0 0
772 2 6 0.0173 -3.280523873408889 2.207746562905852 2.4916880848116527 0 0 0
776 2 10 0.1202 -1.2293413131505435 1.8719371699068237 1.7688225958841954 0 0 0
770 2 4 -0.2297 -3.346987681852008 2.196456169442536 1.1009399269793452 0 0 0
775 2 9 0.4415 -1.611860972539521 2.4373721803239317 3.6550040847051246 0 0 0
179 444 1 -0.55 -0.019690000000004204 2.189079999999999 13.064859999999998 0 0 0
180 444 1 -0.55 -0.019690000000004204 6.349589999999997 13.064859999999998 0 0 0
222 444 1 -0.55 -8.311309999999999 2.410949999999998 13.106289999999992 1 0 0
237 444 1 -0.55 -10.343830000000004 10.53704 8.113579999999994 1 0 0
238 444 1 -0.55 -10.644980000000002 0.42331000000000074 9.117949999999999 1 0 0
239 444 1 -0.55 -8.34796 12.29558 8.064020000000001 1 0 0
240 444 1 -0.55 -6.3438599999999985 10.545009999999996 8.12197 1 0 0
241 444 1 -0.55 -6.059160000000004 0.43427999999999756 9.121879999999992 1 0 0
242 444 1 -0.55 -10.706310000000002 8.168719999999999 9.112699999999998 1 0 0
243 444 1 -0.55 -8.33898 8.837579999999997 8.324680000000003 1 0 0
245 444 1 -0.55 -5.98986 8.18068 9.140499999999998 1 0 0
246 444 1 -0.55 -6.438340000000004 8.42798 6.565340000000001 1 0 0
247 444 1 -0.55 -10.510110000000005 5.621149999999998 8.637000000000002 1 0 0
248 444 1 -0.55 -8.30957 4.220599999999999 8.325469999999997 1 0 0
249 444 1 -0.55 -10.572690000000005 2.986329999999997 8.64881 1 0 0
250 444 1 -0.55 -6.112760000000006 5.633859999999993 8.623109999999992 1 0 0
251 444 1 -0.55 -6.037220000000003 3.001039999999996 8.650899999999995 1 0 0
252 444 2 1.1 -9.927750000000005 12.072709999999999 7.942869999999994 1 0 0
253 444 2 1.1 -6.7681600000000035 12.078189999999998 7.9457499999999985 1 0 0
254 444 2 1.1 -9.896340000000002 9.00310999999999 8.011049999999992 1 0 0
255 444 2 1.1 -6.781130000000005 9.007849999999996 8.020750000000001 1 0 0
256 444 2 1.1 -9.88812 4.287910000000002 8.03176 1 0 0
257 444 2 1.1 -6.733510000000005 4.293889999999999 8.022849999999993 1 0 0
258 444 2 1.1 -10.736470000000002 6.711569999999993 9.786389999999999 1 0 0
303 444 1 -0.55 -2.0803800000000088 2.2735900000000004 11.46024 1 0 0
304 444 1 -0.55 -12.19411 1.9721899999999994 10.455869999999999 1 0 0
305 444 1 -0.55 -0.3215900000000005 4.2694600000000005 11.509799999999993 1 0 0
306 444 1 -0.55 -2.072410000000003 6.273309999999997 11.451849999999995 1 0 0
307 444 1 -0.55 -12.18314 6.558010000000001 10.451940000000002 1 0 0
308 444 1 -0.55 -4.448700000000009 1.9111100000000008 10.461119999999996 1 0 0
309 444 1 -0.55 -3.779840000000002 4.278440000000002 11.249399999999993 1 0 0
310 444 1 -0.55 -4.193170000000002 2.410949999999998 13.02343 1 0 0
311 444 1 -0.55 -4.436490000000001 6.62731 10.433319999999997 1 0 0
312 444 1 -0.55 -4.189440000000008 6.179080000000001 13.008479999999997 1 0 0
313 444 1 -0.55 -6.996270000000003 2.1070600000000006 10.937079999999993 1 0 0
314 444 1 -0.55 -8.396570000000004 4.30785 11.248609999999998 1 0 0
315 444 1 -0.55 -9.631089999999999 2.04448 10.925009999999999 1 0 0
316 444 1 -0.55 -6.983560000000005 6.504659999999999 10.950710000000003 1 0 0
317 444 1 -0.55 -9.616380000000003 6.579950000000002 10.92292 1 0 0
318 444 2 1.1 -0.5447100000000074 2.6894199999999966 11.63122 1 0 0
319 444 2 1.1 -0.5389800000000058 5.8490099999999945 11.628069999999992 1 0 0
320 444 2 1.1 -3.6143100000000032 2.721079999999999 11.562770000000002 1 0 0
321 444 2 1.1 -3.6095700000000033 5.836039999999999 11.55307 1 0 0
322 444 2 1.1 -8.329509999999997 2.7293000000000003 11.542059999999994 1 0 0
323 444 2 1.1 -8.323530000000005 5.883909999999998 11.550970000000001 1 0 0
324 444 2 1.1 -5.9056 1.8809499999999986 9.787429999999999 1 0 0
381 444 2 1.1 -5.901360000000004 6.716060000000001 9.78691 1 0 0
382 444 2 1.1 -10.742210000000002 1.8752099999999974 9.78691 1 0 0
827 2 13 -0.1682 -8.597741319070046 10.831398726150985 11.71008587358053 0 0 0
828 2 14 0.1434 -8.655901712951422 11.234514839267694 10.667756418637248 0 0 0
831 2 17 -0.1211 -9.720564261567986 10.659909767755652 12.594466125718997 0 0 0
832 2 18 0.148 -10.730398068516282 10.926253866209839 12.33214805571268 0 0 0
824 2 10 0.1202 -7.390581830175219 10.412482039338522 12.269674536235987 0 0 0
822 2 8 -0.6423 -6.27663910155652 10.675088267247814 11.550169458198072 0 0 0
823 2 9 0.4415 -6.152305172876924 11.038116954840385 10.551724314768707 0 0 0
821 2 7 0.1927 -4.306153120563341 10.813613759779669 12.021727255666862 0 0 0
820 2 6 0.0173 -5.247550430280101 10.587518556949279 12.503243623014134 0 0 0
407 444 1 -0.55 2.040989999999999 -10.19126 -11.55412 0 1 1
408 444 1 -0.55 12.154729999999992 -10.49266 -10.549750000000003 0 1 1
409 444 1 -0.55 0.28219999999999956 -8.195390000000003 -11.60368 0 1 1
410 444 1 -0.55 2.0327699999999975 -6.191540000000002 -11.545730000000006 0 1 1
411 444 1 -0.55 12.143509999999997 -5.9068400000000025 -10.545820000000004 0 1 1
412 444 1 -0.55 4.409319999999999 -10.553740000000003 -10.555000000000003 0 1 1
413 444 1 -0.55 3.7401999999999997 -8.186410000000002 -11.343020000000005 0 1 1
415 444 1 -0.55 4.3971 -5.837540000000006 -10.527200000000008 0 1 1
416 444 1 -0.55 4.149799999999997 -6.285769999999999 -13.102360000000001 0 1 1
417 444 1 -0.55 6.956629999999999 -10.357790000000003 -11.030700000000007 0 1 1
418 444 1 -0.55 8.357179999999998 -8.157000000000002 -11.342230000000008 0 1 1
419 444 1 -0.55 9.591449999999996 -10.42036 -11.01889 0 1 1
420 444 1 -0.55 6.94392 -5.960190000000008 -11.044590000000005 0 1 1
421 444 1 -0.55 9.57699 -5.884900000000004 -11.016800000000003 0 1 1
422 444 2 1.1 0.5050799999999995 -9.775429999999998 -11.724830000000003 0 1 1
423 444 2 1.1 0.499589999999996 -6.615840000000007 -11.721950000000003 0 1 1
424 444 2 1.1 3.5749200000000005 -9.743770000000005 -11.656650000000004 0 1 1
425 444 2 1.1 3.5701799999999952 -6.628810000000004 -11.646949999999999 0 1 1
426 444 2 1.1 8.289869999999995 -9.735550000000003 -11.635940000000005 0 1 1
427 444 2 1.1 8.284139999999999 -6.580940000000007 -11.644850000000002 0 1 1
428 444 2 1.1 5.866210000000001 -10.5839 -9.881310000000003 0 1 1
458 444 1 -0.55 10.166829999999992 -8.15874 -6.561410000000009 0 1 1
517 444 1 -0.55 10.30419 -1.927810000000008 -8.207460000000005 0 1 1
518 444 1 -0.55 10.60558999999999 -12.041540000000003 -9.21183 0 1 1
519 444 1 -0.55 8.30832 -0.16927000000000447 -8.157900000000003 0 1 1
520 444 1 -0.55 6.30447 -1.9198400000000024 -8.21585 0 1 1
521 444 1 -0.55 6.019769999999996 -12.030570000000003 -9.21576 0 1 1
522 444 1 -0.55 10.666919999999996 -4.296130000000007 -9.206580000000006 0 1 1
523 444 1 -0.55 8.299599999999996 -3.6272700000000064 -8.418300000000004 0 1 1
524 444 1 -0.55 10.166829999999992 -4.040600000000003 -6.644270000000002 0 1 1
525 444 1 -0.55 5.9504699999999975 -4.284170000000005 -9.234380000000003 0 1 1
526 444 1 -0.55 6.3987099999999995 -4.036869999999999 -6.659220000000003 0 1 1
527 444 1 -0.55 10.470719999999998 -6.8437000000000054 -8.730620000000005 0 1 1
528 444 1 -0.55 8.270180000000002 -8.244250000000003 -8.41909 0 1 1
529 444 1 -0.55 10.533299999999999 -9.478520000000007 -8.74269 0 1 1
530 444 1 -0.55 6.073369999999999 -6.830990000000001 -8.716990000000004 0 1 1
531 444 1 -0.55 5.997840000000002 -9.463810000000006 -8.744780000000006 0 1 1
532 444 2 1.1 9.888369999999997 -0.3921400000000066 -8.03648 0 1 1
533 444 2 1.1 6.728779999999999 -0.3866600000000009 -8.039630000000006 0 1 1
534 444 2 1.1 9.85695 -3.461739999999999 -8.10493 0 1 1
535 444 2 1.1 6.741739999999995 -3.4570000000000007 -8.114630000000002 0 1 1
536 444 2 1.1 9.848729999999998 -8.176940000000005 -8.12564 0 1 1
537 444 2 1.1 6.69412 -8.170960000000001 -8.116730000000004 0 1 1
538 444 2 1.1 10.697089999999994 -5.753280000000003 -9.88027 0 1 1
567 444 1 -0.55 10.388710000000001 -12.332220000000005 -6.602840000000009 0 1 1
568 444 1 -0.55 6.22819 -12.332220000000005 -6.602840000000009 0 1 1
571 444 2 1.1 5.861719999999993 -5.748790000000001 -9.880790000000001 0 1 1
572 444 2 1.1 10.702569999999996 -10.589640000000003 -9.880790000000001 0 1 1
807 2 9 0.4415 10.987776142687691 -2.7302963910033498 -11.022890265699886 0 0 1
806 2 8 -0.6423 11.337233352330555 -2.674326891954646 -11.992583671098808 0 0 1
804 2 6 0.0173 10.541149577465655 -2.6211473122110736 -13.111200952199763 0 0 1
392 444 1 -0.55 8.271669999999995 -2.145450000000002 -0.0055100000000027904 0 1 0
451 444 1 -0.55 10.30419 -10.271530000000004 -4.998220000000002 0 1 1
452 444 1 -0.55 10.60558999999999 -0.1578000000000035 -3.993850000000009 0 1 1
453 444 1 -0.55 8.30832 -12.03008 -5.0477799999999995 0 1 1
454 444 1 -0.55 6.30447 -10.279510000000005 -4.989830000000005 0 1 1
455 444 1 -0.55 6.019769999999996 -0.16877000000000386 -3.989920000000007 0 1 1
456 444 1 -0.55 10.666919999999996 -7.9032100000000005 -3.999100000000004 0 1 1
457 444 1 -0.55 8.299599999999996 -8.572080000000001 -4.787120000000007 0 1 1
459 444 1 -0.55 5.9504699999999975 -7.915430000000002 -3.9713000000000065 0 1 1
460 444 1 -0.55 6.3987099999999995 -8.16248 -6.546460000000001 0 1 1
461 444 1 -0.55 10.470719999999998 -5.355650000000007 -4.474800000000009 0 1 1
462 444 1 -0.55 8.270180000000002 -3.9551000000000034 -4.786330000000007 0 1 1
463 444 1 -0.55 10.533299999999999 -2.720830000000001 -4.46299 0 1 1
464 444 1 -0.55 6.073369999999999 -5.368360000000005 -4.488690000000005 0 1 1
465 444 1 -0.55 5.997840000000002 -2.735540000000004 -4.460900000000004 0 1 1
466 444 2 1.1 9.888369999999997 -11.807200000000003 -5.168930000000002 0 1 1
467 444 2 1.1 6.728779999999999 -11.812690000000003 -5.166050000000004 0 1 1
468 444 2 1.1 9.85695 -8.737610000000005 -5.100750000000003 0 1 1
469 444 2 1.1 6.741739999999995 -8.742350000000005 -5.091050000000013 0 1 1
470 444 2 1.1 9.848729999999998 -4.0224100000000025 -5.080040000000002 0 1 1
471 444 2 1.1 6.69412 -4.0283900000000035 -5.0889500000000005 0 1 1
472 444 2 1.1 10.697089999999994 -6.44632 -3.325410000000007 0 1 1
473 444 1 -0.55 2.040989999999999 -2.0080900000000046 -1.6515600000000035 0 1 1
474 444 1 -0.55 12.154729999999992 -1.7066900000000054 -2.6559299999999997 0 1 1
475 444 1 -0.55 0.28219999999999956 -4.0039599999999975 -1.6020000000000039 0 1 1
476 444 1 -0.55 2.0327699999999975 -6.008060000000001 -1.6599500000000038 0 1 1
477 444 1 -0.55 12.143509999999997 -6.292500000000006 -2.6598600000000054 0 1 1
478 444 1 -0.55 4.409319999999999 -1.6456100000000085 -2.6506800000000084 0 1 1
479 444 1 -0.55 3.7401999999999997 -4.012930000000006 -1.8624000000000027 0 1 1
480 444 1 -0.55 4.153539999999998 -2.145450000000002 -0.08837000000000472 0 1 1
481 444 1 -0.55 4.3971 -6.362060000000003 -2.678480000000002 0 1 1
482 444 1 -0.55 4.149799999999997 -5.913570000000003 -0.10332000000000185 0 1 1
483 444 1 -0.55 6.956629999999999 -1.8418100000000042 -2.1747200000000024 0 1 1
484 444 1 -0.55 8.357179999999998 -4.042349999999999 -1.8631900000000012 0 1 1
485 444 1 -0.55 9.591449999999996 -1.7792300000000036 -2.1867900000000127 0 1 1
486 444 1 -0.55 6.94392 -6.2391600000000045 -2.161090000000005 0 1 1
487 444 1 -0.55 9.57699 -6.314689999999997 -2.188880000000003 0 1 1
488 444 2 1.1 0.5050799999999995 -2.4241600000000005 -1.480579999999998 0 1 1
489 444 2 1.1 0.499589999999996 -5.583750000000004 -1.4837300000000102 0 1 1
490 444 2 1.1 3.5749200000000005 -2.4555700000000034 -1.549030000000009 0 1 1
491 444 2 1.1 3.5701799999999952 -5.57054 -1.5587299999999988 0 1 1
492 444 2 1.1 8.289869999999995 -2.4638000000000044 -1.5697400000000012 0 1 1
493 444 2 1.1 8.284139999999999 -5.618410000000005 -1.5608300000000082 0 1 1
494 444 2 1.1 5.866210000000001 -1.6154399999999978 -3.3243700000000054 0 1 1
575 444 2 1.1 5.861719999999993 -6.4505600000000065 -3.3248900000000052 0 1 1
576 444 2 1.1 10.702569999999996 -1.6097100000000015 -3.3248900000000052 0 1 1
753 444 1 -0.55 12.445159999999992 -1.923820000000001 -0.046939999999999316 0 1 0
754 444 1 -0.55 12.445159999999992 -6.084090000000005 -0.046939999999999316 0 1 0
796 2 14 0.1434 10.577386638738608 -11.521090520423913 -1.6126094484348048 -1 1 0
795 2 13 -0.1682 9.988251749407981 -11.147243845029356 -0.7272192786242311 -1 1 0
799 2 17 -0.1211 8.554001927875484 -11.196853517239564 -0.6810750487600163 -1 1 0
800 2 18 0.148 8.170305386368431 -11.800810835515039 -1.4939898340034201 -1 1 0
385 444 1 -0.55 10.384469999999999 -2.0080900000000046 1.5576799999999977 0 1 0
386 444 1 -0.55 0.27074 -1.7066900000000054 2.5620499999999975 0 1 0
387 444 1 -0.55 12.143259999999993 -4.0039599999999975 1.50812 0 1 0
388 444 1 -0.55 10.392439999999995 -6.008060000000001 1.566069999999998 0 1 0
389 444 1 -0.55 0.28171000000000035 -6.292500000000006 2.565979999999996 0 1 0
390 444 1 -0.55 8.016150000000001 -1.6456100000000085 2.556800000000001 0 1 0
391 444 1 -0.55 8.685009999999997 -4.012930000000006 1.768779999999996 0 1 0
393 444 1 -0.55 8.028359999999997 -6.362060000000003 2.5846 0 1 0
394 444 1 -0.55 8.275409999999999 -5.913570000000003 0.009439999999999671 0 1 0
395 444 1 -0.55 5.468579999999994 -1.8418100000000042 2.081100000000001 0 1 0
396 444 1 -0.55 4.06828 -4.042349999999999 1.7695699999999999 0 1 0
397 444 1 -0.55 2.8337599999999963 -1.7792300000000036 2.09291 0 1 0
398 444 1 -0.55 5.4812899999999924 -6.2391600000000045 2.067210000000001 0 1 0
399 444 1 -0.55 2.8484700000000007 -6.314689999999997 2.094999999999999 0 1 0
400 444 2 1.1 11.920139999999998 -2.4241600000000005 1.386969999999998 0 1 0
401 444 2 1.1 11.925870000000002 -5.583750000000004 1.389850000000001 0 1 0
402 444 2 1.1 8.85054 -2.4555700000000034 1.4551499999999997 0 1 0
403 444 2 1.1 8.855279999999995 -5.57054 1.4648500000000002 0 1 0
404 444 2 1.1 4.135340000000001 -2.4638000000000044 1.475859999999999 0 1 0
405 444 2 1.1 4.141319999999999 -5.618410000000005 1.4669500000000006 0 1 0
406 444 2 1.1 6.5592500000000005 -1.6154399999999978 3.2304900000000014 0 1 0
436 444 1 -0.55 2.25863 -4.040600000000003 6.550389999999998 0 1 0
539 444 1 -0.55 2.1210199999999997 -10.271530000000004 4.9043399999999995 0 1 0
540 444 1 -0.55 1.8198699999999963 -0.1578000000000035 3.8999700000000015 0 1 0
541 444 1 -0.55 4.11689 -12.03008 4.9538999999999955 0 1 0
542 444 1 -0.55 6.120990000000001 -10.279510000000005 4.895949999999997 0 1 0
543 444 1 -0.55 6.4056899999999946 -0.16877000000000386 3.896039999999994 0 1 0
544 444 1 -0.55 1.75854 -7.9032100000000005 3.9052200000000017 0 1 0
545 444 1 -0.55 4.125870000000001 -8.572080000000001 4.6934999999999985 0 1 0
546 444 1 -0.55 2.25863 -8.15874 6.467529999999998 0 1 0
547 444 1 -0.55 6.47499 -7.915430000000002 3.877419999999999 0 1 0
548 444 1 -0.55 6.02651 -8.16248 6.452579999999999 0 1 0
549 444 1 -0.55 1.9547399999999993 -5.355650000000007 4.381179999999999 0 1 0
550 444 1 -0.55 4.155279999999999 -3.9551000000000034 4.69271 0 1 0
551 444 1 -0.55 1.8921599999999987 -2.720830000000001 4.369110000000001 0 1 0
552 444 1 -0.55 6.352089999999999 -5.368360000000005 4.394809999999994 0 1 0
553 444 1 -0.55 6.427619999999996 -2.735540000000004 4.367019999999998 0 1 0
554 444 2 1.1 2.5371000000000006 -11.807200000000003 5.07532 0 1 0
555 444 2 1.1 5.696690000000002 -11.812690000000003 5.072169999999998 0 1 0
556 444 2 1.1 2.568509999999998 -8.737610000000005 5.006870000000001 0 1 0
557 444 2 1.1 5.683719999999996 -8.742350000000005 4.997169999999999 0 1 0
558 444 2 1.1 2.5767299999999995 -4.0224100000000025 4.98616 0 1 0
559 444 2 1.1 5.731340000000001 -4.0283900000000035 4.995069999999993 0 1 0
560 444 2 1.1 1.7283799999999978 -6.44632 3.231530000000001 0 1 0
565 444 1 -0.55 2.0367599999999957 -12.332220000000005 6.50896 0 1 0
566 444 1 -0.55 6.197029999999996 -12.332220000000005 6.50896 0 1 0
569 444 2 1.1 6.56349 -6.4505600000000065 3.2310099999999995 0 1 0
570 444 2 1.1 1.7226399999999966 -1.6097100000000015 3.2310099999999995 0 1 0
793 2 11 -0.0921 8.281213212483964 -10.320765446714278 1.7358840549844707 -1 1 0
790 2 8 -0.6423 11.657918184039174 -11.002111064758926 1.0002712046037665 -1 1 0
794 2 12 0.1484 7.862309910582715 -9.957094538905984 2.609088393803191 -1 1 0
792 2 10 0.1202 10.401434860284988 -10.82274956496895 0.57975475274141 -1 1 0
785 2 3 0.1747 10.407679572695839 -9.665950257310572 3.616527658144525 -1 1 0
787 2 5 -0.0974 9.711761489991938 -10.40307940038741 1.7307145853733736 -1 1 0
786 2 4 -0.2297 10.671679918012204 -10.181004011168957 2.806806171925226 -1 1 0
788 2 6 0.0173 11.879783401327819 -10.764286002248394 2.4005483497419355 -1 1 0
797 2 15 -0.1825 7.664585566940007 -10.845021965395055 0.469371503673802 -1 1 0
798 2 16 0.1471 6.636251852812029 -10.835300067357071 0.2395502803479932 -1 1 0
791 2 9 0.4415 12.373350112688877 -11.540834959094948 0.7019529532362032 -1 1 0
414 444 1 -0.55 4.153539999999998 -10.053900000000002 13.106289999999992 0 1 0
429 444 1 -0.55 2.1210199999999997 -1.927810000000008 8.113579999999994 0 1 0
430 444 1 -0.55 1.8198699999999963 -12.041540000000003 9.117949999999999 0 1 0
431 444 1 -0.55 4.11689 -0.16927000000000447 8.064020000000001 0 1 0
432 444 1 -0.55 6.120990000000001 -1.9198400000000024 8.12197 0 1 0
433 444 1 -0.55 6.4056899999999946 -12.030570000000003 9.121879999999992 0 1 0
434 444 1 -0.55 1.75854 -4.296130000000007 9.112699999999998 0 1 0
435 444 1 -0.55 4.125870000000001 -3.6272700000000064 8.324680000000003 0 1 0
437 444 1 -0.55 6.47499 -4.284170000000005 9.140499999999998 0 1 0
438 444 1 -0.55 6.02651 -4.036869999999999 6.565340000000001 0 1 0
439 444 1 -0.55 1.9547399999999993 -6.8437000000000054 8.637000000000002 0 1 0
440 444 1 -0.55 4.155279999999999 -8.244250000000003 8.325469999999997 0 1 0
441 444 1 -0.55 1.8921599999999987 -9.478520000000007 8.64881 0 1 0
442 444 1 -0.55 6.352089999999999 -6.830990000000001 8.623109999999992 0 1 0
443 444 1 -0.55 6.427619999999996 -9.463810000000006 8.650899999999995 0 1 0
444 444 2 1.1 2.5371000000000006 -0.3921400000000066 7.942869999999994 0 1 0
445 444 2 1.1 5.696690000000002 -0.3866600000000009 7.9457499999999985 0 1 0
446 444 2 1.1 2.568509999999998 -3.461739999999999 8.011049999999992 0 1 0
447 444 2 1.1 5.683719999999996 -3.4570000000000007 8.020750000000001 0 1 0
448 444 2 1.1 2.5767299999999995 -8.176940000000005 8.03176 0 1 0
449 444 2 1.1 5.731340000000001 -8.170960000000001 8.022849999999993 0 1 0
450 444 2 1.1 1.7283799999999978 -5.753280000000003 9.786389999999999 0 1 0
495 444 1 -0.55 10.384469999999999 -10.19126 11.46024 0 1 0
496 444 1 -0.55 0.27074 -10.49266 10.455869999999999 0 1 0
497 444 1 -0.55 12.143259999999993 -8.195390000000003 11.509799999999993 0 1 0
498 444 1 -0.55 10.392439999999995 -6.191540000000002 11.451849999999995 0 1 0
499 444 1 -0.55 0.28171000000000035 -5.9068400000000025 10.451940000000002 0 1 0
500 444 1 -0.55 8.016150000000001 -10.553740000000003 10.461119999999996 0 1 0
501 444 1 -0.55 8.685009999999997 -8.186410000000002 11.249399999999993 0 1 0
502 444 1 -0.55 8.271669999999995 -10.053900000000002 13.02343 0 1 0
503 444 1 -0.55 8.028359999999997 -5.837540000000006 10.433319999999997 0 1 0
504 444 1 -0.55 8.275409999999999 -6.285769999999999 13.008479999999997 0 1 0
505 444 1 -0.55 5.468579999999994 -10.357790000000003 10.937079999999993 0 1 0
506 444 1 -0.55 4.06828 -8.157000000000002 11.248609999999998 0 1 0
507 444 1 -0.55 2.8337599999999963 -10.42036 10.925009999999999 0 1 0
508 444 1 -0.55 5.4812899999999924 -5.960190000000008 10.950710000000003 0 1 0
509 444 1 -0.55 2.8484700000000007 -5.884900000000004 10.92292 0 1 0
510 444 2 1.1 11.920139999999998 -9.775429999999998 11.63122 0 1 0
511 444 2 1.1 11.925870000000002 -6.615840000000007 11.628069999999992 0 1 0
512 444 2 1.1 8.85054 -9.743770000000005 11.562770000000002 0 1 0
513 444 2 1.1 8.855279999999995 -6.628810000000004 11.55307 0 1 0
514 444 2 1.1 4.135340000000001 -9.735550000000003 11.542059999999994 0 1 0
515 444 2 1.1 4.141319999999999 -6.580940000000007 11.550970000000001 0 1 0
516 444 2 1.1 6.5592500000000005 -10.5839 9.787429999999999 0 1 0
573 444 2 1.1 6.56349 -5.748790000000001 9.78691 0 1 0
574 444 2 1.1 1.7226399999999966 -10.589640000000003 9.78691 0 1 0
755 444 1 -0.55 12.445159999999992 -10.275770000000005 13.064859999999998 0 1 0
756 444 1 -0.55 12.445159999999992 -6.115250000000004 13.064859999999998 0 1 0
801 2 3 0.1747 10.799046508438883 -1.905393462451583 11.18266998515695 0 0 0
802 2 4 -0.2297 11.238628846597491 -2.265438119800068 12.05157881081499 0 0 0
805 2 7 0.1927 9.402381388554359 -2.8709875001315304 13.07507245748191 0 0 0
23 444 1 -0.55 2.040989999999999 2.2735900000000004 -11.55412 0 0 1
24 444 1 -0.55 12.154729999999992 1.9721899999999994 -10.549750000000003 0 0 1
25 444 1 -0.55 0.28219999999999956 4.2694600000000005 -11.60368 0 0 1
26 444 1 -0.55 2.0327699999999975 6.273309999999997 -11.545730000000006 0 0 1
27 444 1 -0.55 12.143509999999997 6.558010000000001 -10.545820000000004 0 0 1
28 444 1 -0.55 4.409319999999999 1.9111100000000008 -10.555000000000003 0 0 1
29 444 1 -0.55 3.7401999999999997 4.278440000000002 -11.343020000000005 0 0 1
31 444 1 -0.55 4.3971 6.62731 -10.527200000000008 0 0 1
32 444 1 -0.55 4.149799999999997 6.179080000000001 -13.102360000000001 0 0 1
33 444 1 -0.55 6.956629999999999 2.1070600000000006 -11.030700000000007 0 0 1
34 444 1 -0.55 8.357179999999998 4.30785 -11.342230000000008 0 0 1
35 444 1 -0.55 9.591449999999996 2.04448 -11.01889 0 0 1
36 444 1 -0.55 6.94392 6.504659999999999 -11.044590000000005 0 0 1
37 444 1 -0.55 9.57699 6.579950000000002 -11.016800000000003 0 0 1
38 444 2 1.1 0.5050799999999995 2.6894199999999966 -11.724830000000003 0 0 1
39 444 2 1.1 0.499589999999996 5.8490099999999945 -11.721950000000003 0 0 1
40 444 2 1.1 3.5749200000000005 2.721079999999999 -11.656650000000004 0 0 1
41 444 2 1.1 3.5701799999999952 5.836039999999999 -11.646949999999999 0 0 1
42 444 2 1.1 8.289869999999995 2.7293000000000003 -11.635940000000005 0 0 1
43 444 2 1.1 8.284139999999999 5.883909999999998 -11.644850000000002 0 0 1
44 444 2 1.1 5.866210000000001 1.8809499999999986 -9.881310000000003 0 0 1
74 444 1 -0.55 10.166829999999992 4.306110000000002 -6.561410000000009 0 0 1
133 444 1 -0.55 10.30419 10.53704 -8.207460000000005 0 0 1
134 444 1 -0.55 10.60558999999999 0.42331000000000074 -9.21183 0 0 1
135 444 1 -0.55 8.30832 12.29558 -8.157900000000003 0 0 1
136 444 1 -0.55 6.30447 10.545009999999996 -8.21585 0 0 1
137 444 1 -0.55 6.019769999999996 0.43427999999999756 -9.21576 0 0 1
138 444 1 -0.55 10.666919999999996 8.168719999999999 -9.206580000000006 0 0 1
139 444 1 -0.55 8.299599999999996 8.837579999999997 -8.418300000000004 0 0 1
140 444 1 -0.55 10.166829999999992 8.424239999999996 -6.644270000000002 0 0 1
141 444 1 -0.55 5.9504699999999975 8.18068 -9.234380000000003 0 0 1
142 444 1 -0.55 6.3987099999999995 8.42798 -6.659220000000003 0 0 1
143 444 1 -0.55 10.470719999999998 5.621149999999998 -8.730620000000005 0 0 1
144 444 1 -0.55 8.270180000000002 4.220599999999999 -8.41909 0 0 1
145 444 1 -0.55 10.533299999999999 2.986329999999997 -8.74269 0 0 1
146 444 1 -0.55 6.073369999999999 5.633859999999993 -8.716990000000004 0 0 1
147 444 1 -0.55 5.997840000000002 3.001039999999996 -8.744780000000006 0 0 1
148 444 2 1.1 9.888369999999997 12.072709999999999 -8.03648 0 0 1
149 444 2 1.1 6.728779999999999 12.078189999999998 -8.039630000000006 0 0 1
150 444 2 1.1 9.85695 9.00310999999999 -8.10493 0 0 1
151 444 2 1.1 6.741739999999995 9.007849999999996 -8.114630000000002 0 0 1
152 444 2 1.1 9.848729999999998 4.287910000000002 -8.12564 0 0 1
153 444 2 1.1 6.69412 4.293889999999999 -8.116730000000004 0 0 1
154 444 2 1.1 10.697089999999994 6.711569999999993 -9.88027 0 0 1
183 444 1 -0.55 10.388710000000001 0.1326300000000007 -6.602840000000009 0 0 1
184 444 1 -0.55 6.22819 0.1326300000000007 -6.602840000000009 0 0 1
187 444 2 1.1 5.861719999999993 6.716060000000001 -9.880790000000001 0 0 1
188 444 2 1.1 10.702569999999996 1.8752099999999974 -9.880790000000001 0 0 1
8 444 1 -0.55 8.271669999999995 10.319399999999996 -0.0055100000000027904 0 0 0
67 444 1 -0.55 10.30419 2.19332 -4.998220000000002 0 0 1
68 444 1 -0.55 10.60558999999999 12.307049999999998 -3.993850000000009 0 0 1
69 444 1 -0.55 8.30832 0.4347700000000003 -5.0477799999999995 0 0 1
70 444 1 -0.55 6.30447 2.1853399999999983 -4.989830000000005 0 0 1
71 444 1 -0.55 6.019769999999996 12.296079999999998 -3.989920000000007 0 0 1
72 444 1 -0.55 10.666919999999996 4.561639999999995 -3.999100000000004 0 0 1
73 444 1 -0.55 8.299599999999996 3.8927700000000005 -4.787120000000007 0 0 1
75 444 1 -0.55 5.9504699999999975 4.54942 -3.9713000000000065 0 0 1
76 444 1 -0.55 6.3987099999999995 4.302369999999998 -6.546460000000001 0 0 1
77 444 1 -0.55 10.470719999999998 7.1091999999999995 -4.474800000000009 0 0 1
78 444 1 -0.55 8.270180000000002 8.509749999999999 -4.786330000000007 0 0 1
79 444 1 -0.55 10.533299999999999 9.744019999999997 -4.46299 0 0 1
80 444 1 -0.55 6.073369999999999 7.096490000000001 -4.488690000000005 0 0 1
81 444 1 -0.55 5.997840000000002 9.729309999999993 -4.460900000000004 0 0 1
82 444 2 1.1 9.888369999999997 0.6576500000000003 -5.168930000000002 0 0 1
83 444 2 1.1 6.728779999999999 0.6521599999999967 -5.166050000000004 0 0 1
84 444 2 1.1 9.85695 3.7272399999999966 -5.100750000000003 0 0 1
85 444 2 1.1 6.741739999999995 3.722500000000002 -5.091050000000013 0 0 1
86 444 2 1.1 9.848729999999998 8.442439999999996 -5.080040000000002 0 0 1
87 444 2 1.1 6.69412 8.436460000000002 -5.0889500000000005 0 0 1
88 444 2 1.1 10.697089999999994 6.01853 -3.325410000000007 0 0 1
89 444 1 -0.55 2.040989999999999 10.456760000000001 -1.6515600000000035 0 0 1
90 444 1 -0.55 12.154729999999992 10.758160000000002 -2.6559299999999997 0 0 1
91 444 1 -0.55 0.28219999999999956 8.460889999999997 -1.6020000000000039 0 0 1
92 444 1 -0.55 2.0327699999999975 6.456789999999996 -1.6599500000000038 0 0 1
93 444 1 -0.55 12.143509999999997 6.172339999999997 -2.6598600000000054 0 0 1
94 444 1 -0.55 4.409319999999999 10.819239999999999 -2.6506800000000084 0 0 1
95 444 1 -0.55 3.7401999999999997 8.45192 -1.8624000000000027 0 0 1
96 444 1 -0.55 4.153539999999998 10.319399999999996 -0.08837000000000472 0 0 1
97 444 1 -0.55 4.3971 6.102790000000001 -2.678480000000002 0 0 1
98 444 1 -0.55 4.149799999999997 6.55128 -0.10332000000000185 0 0 1
99 444 1 -0.55 6.956629999999999 10.623039999999994 -2.1747200000000024 0 0 1
100 444 1 -0.55 8.357179999999998 8.422499999999998 -1.8631900000000012 0 0 1
101 444 1 -0.55 9.591449999999996 10.685619999999995 -2.1867900000000127 0 0 1
102 444 1 -0.55 6.94392 6.225689999999995 -2.161090000000005 0 0 1
103 444 1 -0.55 9.57699 6.150159999999998 -2.188880000000003 0 0 1
104 444 2 1.1 0.5050799999999995 10.04069 -1.480579999999998 0 0 1
105 444 2 1.1 0.499589999999996 6.881099999999995 -1.4837300000000102 0 0 1
106 444 2 1.1 3.5749200000000005 10.009269999999995 -1.549030000000009 0 0 1
107 444 2 1.1 3.5701799999999952 6.8943099999999955 -1.5587299999999988 0 0 1
108 444 2 1.1 8.289869999999995 10.001049999999994 -1.5697400000000012 0 0 1
109 444 2 1.1 8.284139999999999 6.846439999999996 -1.5608300000000082 0 0 1
110 444 2 1.1 5.866210000000001 10.84941 -3.3243700000000054 0 0 1
191 444 2 1.1 5.861719999999993 6.014289999999994 -3.3248900000000052 0 0 1
192 444 2 1.1 10.702569999999996 10.855139999999997 -3.3248900000000052 0 0 1
369 444 1 -0.55 12.445159999999992 10.541029999999997 -0.046939999999999316 0 0 0
370 444 1 -0.55 12.445159999999992 6.38076 -0.046939999999999316 0 0 0
782 2 16 0.1471 0.4662070395633293 1.9073421548472371 -1.7431467050775495 0 0 0
1 444 1 -0.55 10.384469999999999 10.456760000000001 1.5576799999999977 0 0 0
2 444 1 -0.55 0.27074 10.758160000000002 2.5620499999999975 0 0 0
3 444 1 -0.55 12.143259999999993 8.460889999999997 1.50812 0 0 0
4 444 1 -0.55 10.392439999999995 6.456789999999996 1.566069999999998 0 0 0
5 444 1 -0.55 0.28171000000000035 6.172339999999997 2.565979999999996 0 0 0
6 444 1 -0.55 8.016150000000001 10.819239999999999 2.556800000000001 0 0 0
7 444 1 -0.55 8.685009999999997 8.45192 1.768779999999996 0 0 0
9 444 1 -0.55 8.028359999999997 6.102790000000001 2.5846 0 0 0
10 444 1 -0.55 8.275409999999999 6.55128 0.009439999999999671 0 0 0
11 444 1 -0.55 5.468579999999994 10.623039999999994 2.081100000000001 0 0 0
12 444 1 -0.55 4.06828 8.422499999999998 1.7695699999999999 0 0 0
13 444 1 -0.55 2.8337599999999963 10.685619999999995 2.09291 0 0 0
14 444 1 -0.55 5.4812899999999924 6.225689999999995 2.067210000000001 0 0 0
15 444 1 -0.55 2.8484700000000007 6.150159999999998 2.094999999999999 0 0 0
16 444 2 1.1 11.920139999999998 10.04069 1.386969999999998 0 0 0
17 444 2 1.1 11.925870000000002 6.881099999999995 1.389850000000001 0 0 0
18 444 2 1.1 8.85054 10.009269999999995 1.4551499999999997 0 0 0
19 444 2 1.1 8.855279999999995 6.8943099999999955 1.4648500000000002 0 0 0
20 444 2 1.1 4.135340000000001 10.001049999999994 1.475859999999999 0 0 0
21 444 2 1.1 4.141319999999999 6.846439999999996 1.4669500000000006 0 0 0
22 444 2 1.1 6.5592500000000005 10.84941 3.2304900000000014 0 0 0
52 444 1 -0.55 2.25863 8.424239999999996 6.550389999999998 0 0 0
155 444 1 -0.55 2.1210199999999997 2.19332 4.9043399999999995 0 0 0
156 444 1 -0.55 1.8198699999999963 12.307049999999998 3.8999700000000015 0 0 0
157 444 1 -0.55 4.11689 0.4347700000000003 4.9538999999999955 0 0 0
158 444 1 -0.55 6.120990000000001 2.1853399999999983 4.895949999999997 0 0 0
159 444 1 -0.55 6.4056899999999946 12.296079999999998 3.896039999999994 0 0 0
160 444 1 -0.55 1.75854 4.561639999999995 3.9052200000000017 0 0 0
161 444 1 -0.55 4.125870000000001 3.8927700000000005 4.6934999999999985 0 0 0
162 444 1 -0.55 2.25863 4.306110000000002 6.467529999999998 0 0 0
163 444 1 -0.55 6.47499 4.54942 3.877419999999999 0 0 0
164 444 1 -0.55 6.02651 4.302369999999998 6.452579999999999 0 0 0
165 444 1 -0.55 1.9547399999999993 7.1091999999999995 4.381179999999999 0 0 0
166 444 1 -0.55 4.155279999999999 8.509749999999999 4.69271 0 0 0
167 444 1 -0.55 1.8921599999999987 9.744019999999997 4.369110000000001 0 0 0
168 444 1 -0.55 6.352089999999999 7.096490000000001 4.394809999999994 0 0 0
169 444 1 -0.55 6.427619999999996 9.729309999999993 4.367019999999998 0 0 0
170 444 2 1.1 2.5371000000000006 0.6576500000000003 5.07532 0 0 0
171 444 2 1.1 5.696690000000002 0.6521599999999967 5.072169999999998 0 0 0
172 444 2 1.1 2.568509999999998 3.7272399999999966 5.006870000000001 0 0 0
173 444 2 1.1 5.683719999999996 3.722500000000002 4.997169999999999 0 0 0
174 444 2 1.1 2.5767299999999995 8.442439999999996 4.98616 0 0 0
175 444 2 1.1 5.731340000000001 8.436460000000002 4.995069999999993 0 0 0
176 444 2 1.1 1.7283799999999978 6.01853 3.231530000000001 0 0 0
181 444 1 -0.55 2.0367599999999957 0.1326300000000007 6.50896 0 0 0
182 444 1 -0.55 6.197029999999996 0.1326300000000007 6.50896 0 0 0
185 444 2 1.1 6.56349 6.014289999999994 3.2310099999999995 0 0 0
186 444 2 1.1 1.7226399999999966 10.855139999999997 3.2310099999999995 0 0 0
779 2 13 -0.1682 0.09479292365728575 1.6141006887420044 1.79609271711419 0 0 0
780 2 14 0.1434 0.7733655075695278 1.6741096773728525 2.5842107824628027 0 0 0
783 2 17 -0.1211 0.6766506539615538 1.552640739566863 0.41342704472602243 0 0 0
784 2 18 0.148 1.7219273747381774 1.4103297965597577 0.2630212488555568 0 0 0
30 444 1 -0.55 4.153539999999998 2.410949999999998 13.106289999999992 0 0 0
45 444 1 -0.55 2.1210199999999997 10.53704 8.113579999999994 0 0 0
46 444 1 -0.55 1.8198699999999963 0.42331000000000074 9.117949999999999 0 0 0
47 444 1 -0.55 4.11689 12.29558 8.064020000000001 0 0 0
48 444 1 -0.55 6.120990000000001 10.545009999999996 8.12197 0 0 0
49 444 1 -0.55 6.4056899999999946 0.43427999999999756 9.121879999999992 0 0 0
50 444 1 -0.55 1.75854 8.168719999999999 9.112699999999998 0 0 0
51 444 1 -0.55 4.125870000000001 8.837579999999997 8.324680000000003 0 0 0
53 444 1 -0.55 6.47499 8.18068 9.140499999999998 0 0 0
54 444 1 -0.55 6.02651 8.42798 6.565340000000001 0 0 0
55 444 1 -0.55 1.9547399999999993 5.621149999999998 8.637000000000002 0 0 0
56 444 1 -0.55 4.155279999999999 4.220599999999999 8.325469999999997 0 0 0
57 444 1 -0.55 1.8921599999999987 2.986329999999997 8.64881 0 0 0
58 444 1 -0.55 6.352089999999999 5.633859999999993 8.623109999999992 0 0 0
59 444 1 -0.55 6.427619999999996 3.001039999999996 8.650899999999995 0 0 0
60 444 2 1.1 2.5371000000000006 12.072709999999999 7.942869999999994 0 0 0
61 444 2 1.1 5.696690000000002 12.078189999999998 7.9457499999999985 0 0 0
62 444 2 1.1 2.568509999999998 9.00310999999999 8.011049999999992 0 0 0
63 444 2 1.1 5.683719999999996 9.007849999999996 8.020750000000001 0 0 0
64 444 2 1.1 2.5767299999999995 4.287910000000002 8.03176 0 0 0
65 444 2 1.1 5.731340000000001 4.293889999999999 8.022849999999993 0 0 0
66 444 2 1.1 1.7283799999999978 6.711569999999993 9.786389999999999 0 0 0
111 444 1 -0.55 10.384469999999999 2.2735900000000004 11.46024 0 0 0
112 444 1 -0.55 0.27074 1.9721899999999994 10.455869999999999 0 0 0
113 444 1 -0.55 12.143259999999993 4.2694600000000005 11.509799999999993 0 0 0
114 444 1 -0.55 10.392439999999995 6.273309999999997 11.451849999999995 0 0 0
115 444 1 -0.55 0.28171000000000035 6.558010000000001 10.451940000000002 0 0 0
116 444 1 -0.55 8.016150000000001 1.9111100000000008 10.461119999999996 0 0 0
117 444 1 -0.55 8.685009999999997 4.278440000000002 11.249399999999993 0 0 0
118 444 1 -0.55 8.271669999999995 2.410949999999998 13.02343 0 0 0
119 444 1 -0.55 8.028359999999997 6.62731 10.433319999999997 0 0 0
120 444 1 -0.55 8.275409999999999 6.179080000000001 13.008479999999997 0 0 0
121 444 1 -0.55 5.468579999999994 2.1070600000000006 10.937079999999993 0 0 0
122 444 1 -0.55 4.06828 4.30785 11.248609999999998 0 0 0
123 444 1 -0.55 2.8337599999999963 2.04448 10.925009999999999 0 0 0
124 444 1 -0.55 5.4812899999999924 6.504659999999999 10.950710000000003 0 0 0
125 444 1 -0.55 2.8484700000000007 6.579950000000002 10.92292 0 0 0
126 444 2 1.1 11.920139999999998 2.6894199999999966 11.63122 0 0 0
127 444 2 1.1 11.925870000000002 5.8490099999999945 11.628069999999992 0 0 0
128 444 2 1.1 8.85054 2.721079999999999 11.562770000000002 0 0 0
129 444 2 1.1 8.855279999999995 5.836039999999999 11.55307 0 0 0
130 444 2 1.1 4.135340000000001 2.7293000000000003 11.542059999999994 0 0 0
131 444 2 1.1 4.141319999999999 5.883909999999998 11.550970000000001 0 0 0
132 444 2 1.1 6.5592500000000005 1.8809499999999986 9.787429999999999 0 0 0
189 444 2 1.1 6.56349 6.716060000000001 9.78691 0 0 0
190 444 2 1.1 1.7226399999999966 1.8752099999999974 9.78691 0 0 0
371 444 1 -0.55 12.445159999999992 2.189079999999999 13.064859999999998 0 0 0
372 444 1 -0.55 12.445159999999992 6.349589999999997 13.064859999999998 0 0 0

Velocities

599 0 0 0
600 0 0 0
601 0 0 0
602 0 0 0
603 0 0 0
604 0 0 0
605 0 0 0
607 0 0 0
608 0 0 0
609 0 0 0
610 0 0 0
611 0 0 0
612 0 0 0
613 0 0 0
614 0 0 0
615 0 0 0
616 0 0 0
617 0 0 0
618 0 0 0
619 0 0 0
620 0 0 0
650 0 0 0
709 0 0 0
710 0 0 0
711 0 0 0
712 0 0 0
713 0 0 0
714 0 0 0
715 0 0 0
716 0 0 0
717 0 0 0
718 0 0 0
719 0 0 0
720 0 0 0
721 0 0 0
722 0 0 0
723 0 0 0
724 0 0 0
725 0 0 0
726 0 0 0
727 0 0 0
728 0 0 0
729 0 0 0
730 0 0 0
759 0 0 0
760 0 0 0
763 0 0 0
764 0 0 0
816 -0.001998818709936303 -0.026563339158371717 9.264989456959004e-05
815 0.002500310248481981 -0.013896718026695573 0.00970543321530564
812 0.01476950386939176 -0.019340521080767874 0.03574424422642063
811 0.00429960945019959 -0.0003020271119371092 -5.080288758504443e-05
808 -0.018735710685194452 -0.003362611583747682 0.006188682134088595
561 0 0 0
562 0 0 0
584 0 0 0
643 0 0 0
644 0 0 0
645 0 0 0
646 0 0 0
647 0 0 0
648 0 0 0
649 0 0 0
651 0 0 0
652 0 0 0
653 0 0 0
654 0 0 0
655 0 0 0
656 0 0 0
657 0 0 0
658 0 0 0
659 0 0 0
660 0 0 0
661 0 0 0
662 0 0 0
663 0 0 0
664 0 0 0
665 0 0 0
666 0 0 0
667 0 0 0
668 0 0 0
669 0 0 0
670 0 0 0
671 0 0 0
672 0 0 0
673 0 0 0
674 0 0 0
675 0 0 0
676 0 0 0
677 0 0 0
678 0 0 0
679 0 0 0
680 0 0 0
681 0 0 0
682 0 0 0
683 0 0 0
684 0 0 0
685 0 0 0
686 0 0 0
767 0 0 0
768 0 0 0
577 0 0 0
578 0 0 0
579 0 0 0
580 0 0 0
581 0 0 0
582 0 0 0
583 0 0 0
585 0 0 0
586 0 0 0
587 0 0 0
588 0 0 0
589 0 0 0
590 0 0 0
591 0 0 0
592 0 0 0
593 0 0 0
594 0 0 0
595 0 0 0
596 0 0 0
597 0 0 0
598 0 0 0
628 0 0 0
731 0 0 0
732 0 0 0
733 0 0 0
734 0 0 0
735 0 0 0
736 0 0 0
737 0 0 0
738 0 0 0
739 0 0 0
740 0 0 0
741 0 0 0
742 0 0 0
743 0 0 0
744 0 0 0
745 0 0 0
746 0 0 0
747 0 0 0
748 0 0 0
749 0 0 0
750 0 0 0
751 0 0 0
752 0 0 0
757 0 0 0
758 0 0 0
761 0 0 0
762 0 0 0
789 -0.00979179087500682 -0.021196987042651712 -0.0015963757703814508
563 0 0 0
564 0 0 0
606 0 0 0
621 0 0 0
622 0 0 0
623 0 0 0
624 0 0 0
625 0 0 0
626 0 0 0
627 0 0 0
629 0 0 0
630 0 0 0
631 0 0 0
632 0 0 0
633 0 0 0
634 0 0 0
635 0 0 0
636 0 0 0
637 0 0 0
638 0 0 0
639 0 0 0
640 0 0 0
641 0 0 0
642 0 0 0
687 0 0 0
688 0 0 0
689 0 0 0
690 0 0 0
691 0 0 0
692 0 0 0
693 0 0 0
694 0 0 0
695 0 0 0
696 0 0 0
697 0 0 0
698 0 0 0
699 0 0 0
700 0 0 0
701 0 0 0
702 0 0 0
703 0 0 0
704 0 0 0
705 0 0 0
706 0 0 0
707 0 0 0
708 0 0 0
765 0 0 0
766 0 0 0
810 -0.001251039022841107 0.003386230849399637 0.01734306281881049
809 -0.005793614027905903 0.00551473685153828 -0.006183947728458756
814 0.0002386818231066543 -0.01712166962133597 0.0007348615413764758
813 -0.0031065054151265766 -0.0019193074129459666 0.0032810438341822393
803 0.0006334126869191219 0.0035873441319364263 0.0019348050320100202
215 0 0 0
216 0 0 0
217 0 0 0
218 0 0 0
219 0 0 0
220 0 0 0
221 0 0 0
223 0 0 0
224 0 0 0
225 0 0 0
226 0 0 0
227 0 0 0
228 0 0 0
229 0 0 0
230 0 0 0
231 0 0 0
232 0 0 0
233 0 0 0
234 0 0 0
235 0 0 0
236 0 0 0
266 0 0 0
325 0 0 0
326 0 0 0
327 0 0 0
328 0 0 0
329 0 0 0
330 0 0 0
331 0 0 0
332 0 0 0
333 0 0 0
334 0 0 0
335 0 0 0
336 0 0 0
337 0 0 0
338 0 0 0
339 0 0 0
340 0 0 0
341 0 0 0
342 0 0 0
343 0 0 0
344 0 0 0
345 0 0 0
346 0 0 0
375 0 0 0
376 0 0 0
379 0 0 0
380 0 0 0
826 -0.007836323931345734 -0.00839845075229695 0.023079507224442273
829 0.002220376682922189 -0.0005246667975282471 -0.005043197660984968
830 0.030218360538191213 0.01472551105052914 -0.019534381855520755
825 -0.0013878554554249709 0.010986546343027249 -0.004166326786392547
817 0.039868390737691994 -0.03118041500001795 -0.006614204251242041
819 -0.011904595702146789 -0.0028243480893718306 -0.003565044543453569
818 -0.009794902544449206 0.000447946054772818 -0.013904474171180316
177 0 0 0
178 0 0 0
200 0 0 0
259 0 0 0
260 0 0 0
261 0 0 0
262 0 0 0
263 0 0 0
264 0 0 0
265 0 0 0
267 0 0 0
268 0 0 0
269 0 0 0
270 0 0 0
271 0 0 0
272 0 0 0
273 0 0 0
274 0 0 0
275 0 0 0
276 0 0 0
277 0 0 0
278 0 0 0
279 0 0 0
280 0 0 0
281 0 0 0
282 0 0 0
283 0 0 0
284 0 0 0
285 0 0 0
286 0 0 0
287 0 0 0
288 0 0 0
289 0 0 0
290 0 0 0
291 0 0 0
292 0 0 0
293 0 0 0
294 0 0 0
295 0 0 0
296 0 0 0
297 0 0 0
298 0 0 0
299 0 0 0
300 0 0 0
301 0 0 0
302 0 0 0
383 0 0 0
384 0 0 0
778 0.02033787011314622 0.012210364871850237 0.007922553089847847
781 -0.0031813188922368545 -0.009134660886009005 0.0017699796572192184
777 0.009025444067474582 0.0002938773598385481 -0.013787941314111408
193 0 0 0
194 0 0 0
195 0 0 0
196 0 0 0
197 0 0 0
198 0 0 0
199 0 0 0
201 0 0 0
202 0 0 0
203 0 0 0
204 0 0 0
205 0 0 0
206 0 0 0
207 0 0 0
208 0 0 0
209 0 0 0
210 0 0 0
211 0 0 0
212 0 0 0
213 0 0 0
214 0 0 0
244 0 0 0
347 0 0 0
348 0 0 0
349 0 0 0
350 0 0 0
351 0 0 0
352 0 0 0
353 0 0 0
354 0 0 0
355 0 0 0
356 0 0 0
357 0 0 0
358 0 0 0
359 0 0 0
360 0 0 0
361 0 0 0
362 0 0 0
363 0 0 0
364 0 0 0
365 0 0 0
366 0 0 0
367 0 0 0
368 0 0 0
373 0 0 0
374 0 0 0
377 0 0 0
378 0 0 0
771 0.004702033796697901 -0.0014251735020481791 0.007319207686087015
769 0.0296144271371155 0.05543091281869848 -0.01238276082264547
774 0.0019210130600466576 0.012271297862632601 -0.004081710319023782
773 -0.0028012206498011856 0.03622227099714887 0.008724309645436855
772 -0.0039945367603608315 0.0042715162503937495 -0.007663793837946166
776 -0.008265004429578277 0.002183220751162198 0.009193663250896406
770 -0.010112249375170718 0.005544464584483602 -0.014329467944944241
775 0.03756579208959797 -0.005124317423862062 0.03531330878252154
179 0 0 0
180 0 0 0
222 0 0 0
237 0 0 0
238 0 0 0
239 0 0 0
240 0 0 0
241 0 0 0
242 0 0 0
243 0 0 0
245 0 0 0
246 0 0 0
247 0 0 0
248 0 0 0
249 0 0 0
250 0 0 0
251 0 0 0
252 0 0 0
253 0 0 0
254 0 0 0
255 0 0 0
256 0 0 0
257 0 0 0
258 0 0 0
303 0 0 0
304 0 0 0
305 0 0 0
306 0 0 0
307 0 0 0
308 0 0 0
309 0 0 0
310 0 0 0
311 0 0 0
312 0 0 0
313 0 0 0
314 0 0 0
315 0 0 0
316 0 0 0
317 0 0 0
318 0 0 0
319 0 0 0
320 0 0 0
321 0 0 0
322 0 0 0
323 0 0 0
324 0 0 0
381 0 0 0
382 0 0 0
827 -0.0032811259090110754 0.003201557793037558 0.005648862206606299
828 0.01479485275465726 -0.004992371253067573 -0.01863922421232433
831 0.016217650948988794 -0.005688547599427883 0.0011174874843300142
832 -0.040909640695784316 -0.025945586318555834 -0.006448660843244747
824 0.0015146890119951309 -0.0045555644292309605 -0.00286992453569898
822 0.00309479891287954 -0.0023815471551102327 -0.004690720574104521
823 0.0246405399301231 -0.016390840002896576 -0.05386216674577977
821 -0.019400639685361813 0.002460221089437125 -0.015103568402657504
820 -0.006165694796761075 0.011700666614931826 0.010595210725797792
407 0 0 0
408 0 0 0
409 0 0 0
410 0 0 0
411 0 0 0
412 0 0 0
413 0 0 0
415 0 0 0
416 0 0 0
417 0 0 0
418 0 0 0
419 0 0 0
420 0 0 0
421 0 0 0
422 0 0 0
423 0 0 0
424 0 0 0
425 0 0 0
426 0 0 0
427 0 0 0
428 0 0 0
458 0 0 0
517 0 0 0
518 0 0 0
519 0 0 0
520 0 0 0
521 0 0 0
522 0 0 0
523 0 0 0
524 0 0 0
525 0 0 0
526 0 0 0
527 0 0 0
528 0 0 0
529 0 0 0
530 0 0 0
531 0 0 0
532 0 0 0
533 0 0 0
534 0 0 0
535 0 0 0
536 0 0 0
537 0 0 0
538 0 0 0
567 0 0 0
568 0 0 0
571 0 0 0
572 0 0 0
807 0.0022314812798710504 -0.02102287267956803 -0.011939999545704716
806 0.0047766229632521294 0.011499153040585195 0.005995349088650612
804 -0.0015723796150173169 0.005261340435594319 0.0078096166665205125
392 0 0 0
451 0 0 0
452 0 0 0
453 0 0 0
454 0 0 0
455 0 0 0
456 0 0 0
457 0 0 0
459 0 0 0
460 0 0 0
461 0 0 0
462 0 0 0
463 0 0 0
464 0 0 0
465 0 0 0
466 0 0 0
467 0 0 0
468 0 0 0
469 0 0 0
470 0 0 0
471 0 0 0
472 0 0 0
473 0 0 0
474 0 0 0
475 0 0 0
476 0 0 0
477 0 0 0
478 0 0 0
479 0 0 0
480 0 0 0
481 0 0 0
482 0 0 0
483 0 0 0
484 0 0 0
485 0 0 0
486 0 0 0
487 0 0 0
488 0 0 0
489 0 0 0
490 0 0 0
491 0 0 0
492 0 0 0
493 0 0 0
494 0 0 0
575 0 0 0
576 0 0 0
753 0 0 0
754 0 0 0
796 -0.008364808292668282 -0.0005520739981014554 0.03681506180620881
795 -0.003620159456365743 -0.010472780993179293 0.0038156279330833955
799 -0.010922029233412475 -0.013208560453955702 0.00023429678140044762
800 -0.03224815842488083 0.024678120115770995 0.01075069965174052
385 0 0 0
386 0 0 0
387 0 0 0
388 0 0 0
389 0 0 0
390 0 0 0
391 0 0 0
393 0 0 0
394 0 0 0
395 0 0 0
396 0 0 0
397 0 0 0
398 0 0 0
399 0 0 0
400 0 0 0
401 0 0 0
402 0 0 0
403 0 0 0
404 0 0 0
405 0 0 0
406 0 0 0
436 0 0 0
539 0 0 0
540 0 0 0
541 0 0 0
542 0 0 0
543 0 0 0
544 0 0 0
545 0 0 0
546 0 0 0
547 0 0 0
548 0 0 0
549 0 0 0
550 0 0 0
551 0 0 0
552 0 0 0
553 0 0 0
554 0 0 0
555 0 0 0
556 0 0 0
557 0 0 0
558 0 0 0
559 0 0 0
560 0 0 0
565 0 0 0
566 0 0 0
569 0 0 0
570 0 0 0
793 0.010836385407190167 0.0008729037980401901 -0.00770174543890866
790 0.0036402044888037065 -0.0007299529442027926 0.0031056201721335894
794 0.007939999520307337 -0.015313461087952271 0.00509819727557542
792 0.004565551469586737 0.003378250546881719 0.005584485831012157
785 0.0025986362854718576 -0.041333572686271816 -0.0010894927879925337
787 0.005238131884958176 -0.008102273393778813 -0.004362339468318306
786 -0.004982921521584123 0.005398433769032501 -0.002498110960003114
788 0.0009966428737928819 -0.009125151726356744 -0.002677358739431616
797 0.006369017725680416 -0.005679645069023593 0.005574919385105309
798 -0.01697302529893248 -0.0026466601886957434 0.02154501714022803
791 -0.012450286068538333 -0.016965261531349606 0.00723337913336443
414 0 0 0
429 0 0 0
430 0 0 0
431 0 0 0
432 0 0 0
433 0 0 0
434 0 0 0
435 0 0 0
437 0 0 0
438 0 0 0
439 0 0 0
440 0 0 0
441 0 0 0
442 0 0 0
443 0 0 0
444 0 0 0
445 0 0 0
446 0 0 0
447 0 0 0
448 0 0 0
449 0 0 0
450 0 0 0
495 0 0 0
496 0 0 0
497 0 0 0
498 0 0 0
499 0 0 0
500 0 0 0
501 0 0 0
502 0 0 0
503 0 0 0
504 0 0 0
505 0 0 0
506 0 0 0
507 0 0 0
508 0 0 0
509 0 0 0
510 0 0 0
511 0 0 0
512 0 0 0
513 0 0 0
514 0 0 0
515 0 0 0
516 0 0 0
573 0 0 0
574 0 0 0
755 0 0 0
756 0 0 0
801 0.03743438256152565 0.015578800733663266 -0.02836521352430972
802 -0.0007429820384842065 0.009985009279103205 -0.007137556494427775
805 0.009867143178290705 0.013318776950263907 -0.01784148790137178
23 0 0 0
24 0 0 0
25 0 0 0
26 0 0 0
27 0 0 0
28 0 0 0
29 0 0 0
31 0 0 0
32 0 0 0
33 0 0 0
34 0 0 0
35 0 0 0
36 0 0 0
37 0 0 0
38 0 0 0
39 0 0 0
40 0 0 0
41 0 0 0
42 0 0 0
43 0 0 0
44 0 0 0
74 0 0 0
133 0 0 0
134 0 0 0
135 0 0 0
136 0 0 0
137 0 0 0
138 0 0 0
139 0 0 0
140 0 0 0
141 0 0 0
142 0 0 0
143 0 0 0
144 0 0 0
145 0 0 0
146 0 0 0
147 0 0 0
148 0 0 0
149 0 0 0
150 0 0 0
151 0 0 0
152 0 0 0
153 0 0 0
154 0 0 0
183 0 0 0
184 0 0 0
187 0 0 0
188 0 0 0
8 0 0 0
67 0 0 0
68 0 0 0
69 0 0 0
70 0 0 0
71 0 0 0
72 0 0 0
73 0 0 0
75 0 0 0
76 0 0 0
77 0 0 0
78 0 0 0
79 0 0 0
80 0 0 0
81 0 0 0
82 0 0 0
83 0 0 0
84 0 0 0
85 0 0 0
86 0 0 0
87 0 0 0
88 0 0 0
89 0 0 0
90 0 0 0
91 0 0 0
92 0 0 0
93 0 0 0
94 0 0 0
95 0 0 0
96 0 0 0
97 0 0 0
98 0 0 0
99 0 0 0
100 0 0 0
101 0 0 0
102 0 0 0
103 0 0 0
104 0 0 0
105 0 0 0
106 0 0 0
107 0 0 0
108 0 0 0
109 0 0 0
110 0 0 0
191 0 0 0
192 0 0 0
369 0 0 0
370 0 0 0
782 0.0028858527444183203 0.029499948731605805 -0.011408049373878097
1 0 0 0
2 0 0 0
3 0 0 0
4 0 0 0
5 0 0 0
6 0 0 0
7 0 0 0
9 0 0 0
10 0 0 0
11 0 0 0
12 0 0 0
13 0 0 0
14 0 0 0
15 0 0 0
16 0 0 0
17 0 0 0
18 0 0 0
19 0 0 0
20 0 0 0
21 0 0 0
22 0 0 0
52 0 0 0
155 0 0 0
156 0 0 0
157 0 0 0
158 0 0 0
159 0 0 0
160 0 0 0
161 0 0 0
162 0 0 0
163 0 0 0
164 0 0 0
165 0 0 0
166 0 0 0
167 0 0 0
168 0 0 0
169 0 0 0
170 0 0 0
171 0 0 0
172 0 0 0
173 0 0 0
174 0 0 0
175 0 0 0
176 0 0 0
181 0 0 0
182 0 0 0
185 0 0 0
186 0 0 0
779 -0.009400260523169822 -0.002643791841272502 -0.010001932405999212
780 0.0018635941726015857 -0.046511675757962896 -0.020056032710816876
783 0.010171516420902475 -0.004277190759646768 -0.0013947198771800673
784 -0.014672105375631907 -0.005908502898949722 -0.01904130755482186
30 0 0 0
45 0 0 0
46 0 0 0
47 0 0 0
48 0 0 0
49 0 0 0
50 0 0 0
51 0 0 0
53 0 0 0
54 0 0 0
55 0 0 0
56 0 0 0
57 0 0 0
58 0 0 0
59 0 0 0
60 0 0 0
61 0 0 0
62 0 0 0
63 0 0 0
64 0 0 0
65 0 0 0
66 0 0 0
111 0 0 0
112 0 0 0
113 0 0 0
114 0 0 0
115 0 0 0
116 0 0 0
117 0 0 0
118 0 0 0
119 0 0 0
120 0 0 0
121 0 0 0
122 0 0 0
123 0 0 0
124 0 0 0
125 0 0 0
126 0 0 0
127 0 0 0
128 0 0 0
129 0 0 0
130 0 0 0
131 0 0 0
132 0 0 0
189 0 0 0
190 0 0 0
371 0 0 0
372 0 0 0

Bonds

1 1 599 614
2 1 599 616
3 1 600 764
4 1 601 614
5 1 601 615
6 1 602 615
7 1 602 617
8 1 603 730
9 1 604 616
10 1 604 620
11 1 605 616
12 1 605 617
13 1 607 617
14 1 607 763
15 1 608 617
16 1 608 707
17 1 609 618
18 1 609 620
19 1 610 618
20 1 610 619
21 1 611 618
22 1 611 764
23 1 612 619
24 1 612 763
25 1 613 619
26 1 613 730
27 1 614 755
28 1 615 756
29 1 618 694
30 1 619 696
31 1 620 713
32 1 620 723
33 1 650 660
34 1 650 728
35 1 709 724
36 1 709 726
37 1 710 764
38 1 711 724
39 1 711 725
40 1 712 725
41 1 712 727
42 1 714 726
43 1 714 730
44 1 715 726
45 1 715 727
46 1 716 726
47 1 717 727
48 1 717 763
49 1 718 727
50 1 719 728
51 1 719 730
52 1 720 728
53 1 720 729
54 1 721 728
55 1 721 764
56 1 722 729
57 1 722 763
58 1 723 729
59 16 816 815
60 15 815 811
61 18 815 813
62 12 812 811
63 11 811 808
64 8 808 803
65 17 808 806
66 1 561 592
67 1 562 593
68 1 584 594
69 1 584 684
70 1 643 658
71 1 643 660
72 1 644 768
73 1 645 658
74 1 645 659
75 1 646 659
76 1 646 661
77 1 647 686
78 1 648 660
79 1 648 664
80 1 649 660
81 1 649 661
82 1 651 661
83 1 651 767
84 1 652 661
85 1 652 729
86 1 653 662
87 1 653 664
88 1 654 662
89 1 654 663
90 1 655 662
91 1 655 768
92 1 656 663
93 1 656 767
94 1 657 663
95 1 657 686
96 1 658 759
97 1 659 760
98 1 662 716
99 1 663 718
100 1 664 669
101 1 664 679
102 1 665 680
103 1 665 682
104 1 666 768
105 1 667 680
106 1 667 681
107 1 668 681
108 1 668 683
109 1 670 682
110 1 670 686
111 1 671 682
112 1 671 683
113 1 672 682
114 1 673 683
115 1 673 767
116 1 674 683
117 1 675 684
118 1 675 686
119 1 676 684
120 1 676 685
121 1 677 684
122 1 677 768
123 1 678 685
124 1 678 767
125 1 679 685
126 1 680 753
127 1 681 754
128 1 577 592
129 1 577 594
130 1 578 762
131 1 579 592
132 1 579 593
133 1 580 593
134 1 580 595
135 1 581 752
136 1 582 594
137 1 582 598
138 1 583 594
139 1 583 595
140 1 585 595
141 1 585 761
142 1 586 595
143 1 586 685
144 1 587 596
145 1 587 598
146 1 588 596
147 1 588 597
148 1 589 596
149 1 589 762
150 1 590 597
151 1 590 761
152 1 591 597
153 1 591 752
154 1 596 672
155 1 597 674
156 1 598 735
157 1 598 745
158 1 628 638
159 1 628 750
160 1 731 746
161 1 731 748
162 1 732 762
163 1 733 746
164 1 733 747
165 1 734 747
166 1 734 749
167 1 736 748
168 1 736 752
169 1 737 748
170 1 737 749
171 1 738 748
172 1 739 749
173 1 739 761
174 1 740 749
175 1 741 750
176 1 741 752
177 1 742 750
178 1 742 751
179 1 743 750
180 1 743 762
181 1 744 751
182 1 744 761
183 1 745 751
184 1 746 757
185 1 747 758
186 5 789 788
187 1 563 702
188 1 564 703
189 1 606 616
190 1 606 706
191 1 621 636
192 1 621 638
193 1 622 766
194 1 623 636
195 1 623 637
196 1 624 637
197 1 624 639
198 1 625 708
199 1 626 638
200 1 626 642
201 1 627 638
202 1 627 639
203 1 629 639
204 1 629 765
205 1 630 639
206 1 630 751
207 1 631 640
208 1 631 642
209 1 632 640
210 1 632 641
211 1 633 640
212 1 633 766
213 1 634 641
214 1 634 765
215 1 635 641
216 1 635 708
217 1 640 738
218 1 641 740
219 1 642 691
220 1 642 701
221 1 687 702
222 1 687 704
223 1 688 766
224 1 689 702
225 1 689 703
226 1 690 703
227 1 690 705
228 1 692 704
229 1 692 708
230 1 693 704
231 1 693 705
232 1 694 704
233 1 695 705
234 1 695 765
235 1 696 705
236 1 697 706
237 1 697 708
238 1 698 706
239 1 698 707
240 1 699 706
241 1 699 766
242 1 700 707
243 1 700 765
244 1 701 707
245 10 810 809
246 9 809 803
247 14 814 813
248 13 813 809
249 3 803 802
250 1 215 230
251 1 215 232
252 1 216 380
253 1 217 230
254 1 217 231
255 1 218 231
256 1 218 233
257 1 219 346
258 1 220 232
259 1 220 236
260 1 221 232
261 1 221 233
262 1 223 233
263 1 223 379
264 1 224 233
265 1 224 323
266 1 225 234
267 1 225 236
268 1 226 234
269 1 226 235
270 1 227 234
271 1 227 380
272 1 228 235
273 1 228 379
274 1 229 235
275 1 229 346
276 1 230 371
277 1 231 372
278 1 234 310
279 1 235 312
280 1 236 329
281 1 236 339
282 1 266 276
283 1 266 344
284 1 325 340
285 1 325 342
286 1 326 380
287 1 326 724
288 1 327 340
289 1 327 341
290 1 328 341
291 1 328 343
292 1 329 725
293 1 330 342
294 1 330 346
295 1 331 342
296 1 331 343
297 1 332 342
298 1 333 343
299 1 333 379
300 1 334 343
301 1 335 344
302 1 335 346
303 1 336 344
304 1 336 345
305 1 337 344
306 1 337 380
307 1 338 345
308 1 338 379
309 1 339 345
310 1 340 710
311 1 340 759
312 1 341 713
313 1 341 760
314 1 375 724
315 1 376 725
316 10 826 825
317 13 829 825
318 14 830 829
319 9 825 819
320 3 819 818
321 2 818 817
322 1 177 208
323 1 178 209
324 1 200 210
325 1 200 300
326 1 259 274
327 1 259 276
328 1 260 384
329 1 260 658
330 1 261 274
331 1 261 275
332 1 262 275
333 1 262 277
334 1 263 302
335 1 263 659
336 1 264 276
337 1 264 280
338 1 265 276
339 1 265 277
340 1 267 277
341 1 267 383
342 1 268 277
343 1 268 345
344 1 269 278
345 1 269 280
346 1 270 278
347 1 270 279
348 1 271 278
349 1 271 384
350 1 272 279
351 1 272 383
352 1 273 279
353 1 273 302
354 1 274 375
355 1 274 644
356 1 275 376
357 1 275 647
358 1 278 332
359 1 279 334
360 1 280 285
361 1 280 295
362 1 281 296
363 1 281 298
364 1 282 384
365 1 283 296
366 1 283 297
367 1 284 297
368 1 284 299
369 1 286 298
370 1 286 302
371 1 287 298
372 1 287 299
373 1 288 298
374 1 289 299
375 1 289 383
376 1 290 299
377 1 291 300
378 1 291 302
379 1 292 300
380 1 292 301
381 1 293 300
382 1 293 384
383 1 294 301
384 1 294 383
385 1 295 301
386 1 296 369
387 1 297 370
388 10 778 777
389 13 781 777
390 9 777 771
391 1 193 208
392 1 193 210
393 1 194 378
394 1 195 208
395 1 195 209
396 1 196 209
397 1 196 211
398 1 197 368
399 1 198 210
400 1 198 214
401 1 199 210
402 1 199 211
403 1 201 211
404 1 201 377
405 1 202 211
406 1 202 301
407 1 203 212
408 1 203 214
409 1 204 212
410 1 204 213
411 1 205 212
412 1 205 378
413 1 206 213
414 1 206 377
415 1 207 213
416 1 207 368
417 1 212 288
418 1 213 290
419 1 214 351
420 1 214 361
421 1 244 254
422 1 244 366
423 1 347 362
424 1 347 364
425 1 348 378
426 1 348 746
427 1 349 362
428 1 349 363
429 1 350 363
430 1 350 365
431 1 351 747
432 1 352 364
433 1 352 368
434 1 353 364
435 1 353 365
436 1 354 364
437 1 355 365
438 1 355 377
439 1 356 365
440 1 357 366
441 1 357 368
442 1 358 366
443 1 358 367
444 1 359 366
445 1 359 378
446 1 360 367
447 1 360 377
448 1 361 367
449 1 362 373
450 1 362 732
451 1 363 374
452 1 363 735
453 1 373 636
454 1 374 637
455 3 771 770
456 6 774 772
457 5 773 772
458 4 772 770
459 8 776 771
460 17 776 774
461 2 770 769
462 7 775 774
463 1 179 318
464 1 180 319
465 1 222 232
466 1 222 322
467 1 237 252
468 1 237 254
469 1 238 382
470 1 238 636
471 1 239 252
472 1 239 253
473 1 240 253
474 1 240 255
475 1 241 324
476 1 241 637
477 1 242 254
478 1 242 258
479 1 243 254
480 1 243 255
481 1 245 255
482 1 245 381
483 1 246 255
484 1 246 367
485 1 247 256
486 1 247 258
487 1 248 256
488 1 248 257
489 1 249 256
490 1 249 382
491 1 250 257
492 1 250 381
493 1 251 257
494 1 251 324
495 1 252 622
496 1 252 757
497 1 253 625
498 1 253 758
499 1 256 354
500 1 257 356
501 1 258 307
502 1 258 317
503 1 303 318
504 1 303 320
505 1 304 382
506 1 305 318
507 1 305 319
508 1 306 319
509 1 306 321
510 1 308 320
511 1 308 324
512 1 309 320
513 1 309 321
514 1 310 320
515 1 311 321
516 1 311 381
517 1 312 321
518 1 313 322
519 1 313 324
520 1 314 322
521 1 314 323
522 1 315 322
523 1 315 382
524 1 316 323
525 1 316 381
526 1 317 323
527 11 827 824
528 12 828 827
529 15 831 827
530 18 831 829
531 16 832 831
532 8 824 819
533 17 824 822
534 6 822 820
535 7 823 822
536 5 821 820
537 4 820 818
538 1 407 422
539 1 407 424
540 1 408 572
541 1 408 614
542 1 409 422
543 1 409 423
544 1 410 423
545 1 410 425
546 1 411 538
547 1 411 615
548 1 412 424
549 1 412 428
550 1 413 424
551 1 413 425
552 1 415 425
553 1 415 571
554 1 416 425
555 1 416 515
556 1 417 426
557 1 417 428
558 1 418 426
559 1 418 427
560 1 419 426
561 1 419 572
562 1 420 427
563 1 420 571
564 1 421 427
565 1 421 538
566 1 422 563
567 1 422 600
568 1 423 564
569 1 423 603
570 1 426 502
571 1 427 504
572 1 428 521
573 1 428 531
574 1 458 468
575 1 458 536
576 1 517 532
577 1 517 534
578 1 518 572
579 1 519 532
580 1 519 533
581 1 520 533
582 1 520 535
583 1 522 534
584 1 522 538
585 1 523 534
586 1 523 535
587 1 524 534
588 1 525 535
589 1 525 571
590 1 526 535
591 1 527 536
592 1 527 538
593 1 528 536
594 1 528 537
595 1 529 536
596 1 529 572
597 1 530 537
598 1 530 571
599 1 531 537
600 7 807 806
601 6 806 804
602 4 804 802
603 1 392 402
604 1 392 492
605 1 451 466
606 1 451 468
607 1 452 576
608 1 453 466
609 1 453 467
610 1 454 467
611 1 454 469
612 1 455 494
613 1 456 468
614 1 456 472
615 1 457 468
616 1 457 469
617 1 459 469
618 1 459 575
619 1 460 469
620 1 460 537
621 1 461 470
622 1 461 472
623 1 462 470
624 1 462 471
625 1 463 470
626 1 463 576
627 1 464 471
628 1 464 575
629 1 465 471
630 1 465 494
631 1 466 567
632 1 467 568
633 1 470 524
634 1 471 526
635 1 472 477
636 1 472 487
637 1 473 488
638 1 473 490
639 1 474 576
640 1 474 680
641 1 475 488
642 1 475 489
643 1 476 489
644 1 476 491
645 1 477 681
646 1 478 490
647 1 478 494
648 1 479 490
649 1 479 491
650 1 480 490
651 1 481 491
652 1 481 575
653 1 482 491
654 1 483 492
655 1 483 494
656 1 484 492
657 1 484 493
658 1 485 492
659 1 485 576
660 1 486 493
661 1 486 575
662 1 487 493
663 1 488 561
664 1 488 666
665 1 489 562
666 1 489 669
667 12 796 795
668 11 795 792
669 15 799 795
670 18 799 797
671 16 800 799
672 1 385 400
673 1 385 402
674 1 386 570
675 1 386 592
676 1 387 400
677 1 387 401
678 1 388 401
679 1 388 403
680 1 389 560
681 1 389 593
682 1 390 402
683 1 390 406
684 1 391 402
685 1 391 403
686 1 393 403
687 1 393 569
688 1 394 403
689 1 394 493
690 1 395 404
691 1 395 406
692 1 396 404
693 1 396 405
694 1 397 404
695 1 397 570
696 1 398 405
697 1 398 569
698 1 399 405
699 1 399 560
700 1 400 578
701 1 400 753
702 1 401 581
703 1 401 754
704 1 404 480
705 1 405 482
706 1 406 543
707 1 406 553
708 1 436 446
709 1 436 558
710 1 539 554
711 1 539 556
712 1 540 570
713 1 541 554
714 1 541 555
715 1 542 555
716 1 542 557
717 1 544 556
718 1 544 560
719 1 545 556
720 1 545 557
721 1 546 556
722 1 547 557
723 1 547 569
724 1 548 557
725 1 549 558
726 1 549 560
727 1 550 558
728 1 550 559
729 1 551 558
730 1 551 570
731 1 552 559
732 1 552 569
733 1 553 559
734 1 554 565
735 1 555 566
736 9 793 787
737 6 790 788
738 10 794 793
739 8 792 787
740 17 792 790
741 3 787 786
742 2 786 785
743 4 788 786
744 13 797 793
745 14 798 797
746 7 791 790
747 1 414 424
748 1 414 514
749 1 429 444
750 1 429 446
751 1 430 574
752 1 431 444
753 1 431 445
754 1 432 445
755 1 432 447
756 1 433 516
757 1 434 446
758 1 434 450
759 1 435 446
760 1 435 447
761 1 437 447
762 1 437 573
763 1 438 447
764 1 438 559
765 1 439 448
766 1 439 450
767 1 440 448
768 1 440 449
769 1 441 448
770 1 441 574
771 1 442 449
772 1 442 573
773 1 443 449
774 1 443 516
775 1 448 546
776 1 449 548
777 1 450 499
778 1 450 509
779 1 495 510
780 1 495 512
781 1 496 574
782 1 496 702
783 1 497 510
784 1 497 511
785 1 498 511
786 1 498 513
787 1 499 703
788 1 500 512
789 1 500 516
790 1 501 512
791 1 501 513
792 1 502 512
793 1 503 513
794 1 503 573
795 1 504 513
796 1 505 514
797 1 505 516
798 1 506 514
799 1 506 515
800 1 507 514
801 1 507 574
802 1 508 515
803 1 508 573
804 1 509 515
805 1 510 688
806 1 510 755
807 1 511 691
808 1 511 756
809 2 802 801
810 5 805 804
811 1 23 38
812 1 23 40
813 1 24 188
814 1 24 230
815 1 25 38
816 1 25 39
817 1 26 39
818 1 26 41
819 1 27 154
820 1 27 231
821 1 28 40
822 1 28 44
823 1 29 40
824 1 29 41
825 1 31 41
826 1 31 187
827 1 32 41
828 1 32 131
829 1 33 42
830 1 33 44
831 1 34 42
832 1 34 43
833 1 35 42
834 1 35 188
835 1 36 43
836 1 36 187
837 1 37 43
838 1 37 154
839 1 38 179
840 1 38 216
841 1 39 180
842 1 39 219
843 1 42 118
844 1 43 120
845 1 44 137
846 1 44 147
847 1 74 84
848 1 74 152
849 1 133 148
850 1 133 150
851 1 134 188
852 1 134 532
853 1 135 148
854 1 135 149
855 1 136 149
856 1 136 151
857 1 137 533
858 1 138 150
859 1 138 154
860 1 139 150
861 1 139 151
862 1 140 150
863 1 141 151
864 1 141 187
865 1 142 151
866 1 143 152
867 1 143 154
868 1 144 152
869 1 144 153
870 1 145 152
871 1 145 188
872 1 146 153
873 1 146 187
874 1 147 153
875 1 148 518
876 1 148 567
877 1 149 521
878 1 149 568
879 1 183 532
880 1 184 533
881 1 8 18
882 1 8 108
883 1 67 82
884 1 67 84
885 1 68 192
886 1 68 466
887 1 69 82
888 1 69 83
889 1 70 83
890 1 70 85
891 1 71 110
892 1 71 467
893 1 72 84
894 1 72 88
895 1 73 84
896 1 73 85
897 1 75 85
898 1 75 191
899 1 76 85
900 1 76 153
901 1 77 86
902 1 77 88
903 1 78 86
904 1 78 87
905 1 79 86
906 1 79 192
907 1 80 87
908 1 80 191
909 1 81 87
910 1 81 110
911 1 82 183
912 1 82 452
913 1 83 184
914 1 83 455
915 1 86 140
916 1 87 142
917 1 88 93
918 1 88 103
919 1 89 104
920 1 89 106
921 1 90 192
922 1 90 296
923 1 91 104
924 1 91 105
925 1 92 105
926 1 92 107
927 1 93 297
928 1 94 106
929 1 94 110
930 1 95 106
931 1 95 107
932 1 96 106
933 1 97 107
934 1 97 191
935 1 98 107
936 1 99 108
937 1 99 110
938 1 100 108
939 1 100 109
940 1 101 108
941 1 101 192
942 1 102 109
943 1 102 191
944 1 103 109
945 1 104 177
946 1 104 282
947 1 105 178
948 1 105 285
949 14 782 781
950 1 1 16
951 1 1 18
952 1 2 186
953 1 2 208
954 1 3 16
955 1 3 17
956 1 4 17
957 1 4 19
958 1 5 176
959 1 5 209
960 1 6 18
961 1 6 22
962 1 7 18
963 1 7 19
964 1 9 19
965 1 9 185
966 1 10 19
967 1 10 109
968 1 11 20
969 1 11 22
970 1 12 20
971 1 12 21
972 1 13 20
973 1 13 186
974 1 14 21
975 1 14 185
976 1 15 21
977 1 15 176
978 1 16 194
979 1 16 369
980 1 17 197
981 1 17 370
982 1 20 96
983 1 21 98
984 1 22 159
985 1 22 169
986 1 52 62
987 1 52 174
988 1 155 170
989 1 155 172
990 1 156 186
991 1 156 554
992 1 157 170
993 1 157 171
994 1 158 171
995 1 158 173
996 1 159 555
997 1 160 172
998 1 160 176
999 1 161 172
1000 1 161 173
1001 1 162 172
1002 1 163 173
1003 1 163 185
1004 1 164 173
1005 1 165 174
1006 1 165 176
1007 1 166 174
1008 1 166 175
1009 1 167 174
1010 1 167 186
1011 1 168 175
1012 1 168 185
1013 1 169 175
1014 1 170 181
1015 1 170 540
1016 1 171 182
1017 1 171 543
1018 1 181 444
1019 1 182 445
1020 11 779 776
1021 12 780 779
1022 15 783 779
1023 18 783 781
1024 16 784 783
1025 1 30 40
1026 1 30 130
1027 1 45 60
1028 1 45 62
1029 1 46 190
1030 1 46 444
1031 1 47 60
1032 1 47 61
1033 1 48 61
1034 1 48 63
1035 1 49 132
1036 1 49 445
1037 1 50 62
1038 1 50 66
1039 1 51 62
1040 1 51 63
1041 1 53 63
1042 1 53 189
1043 1 54 63
1044 1 54 175
1045 1 55 64
1046 1 55 66
1047 1 56 64
1048 1 56 65
1049 1 57 64
1050 1 57 190
1051 1 58 65
1052 1 58 189
1053 1 59 65
1054 1 59 132
1055 1 60 430
1056 1 60 565
1057 1 61 433
1058 1 61 566
1059 1 64 162
1060 1 65 164
1061 1 66 115
1062 1 66 125
1063 1 111 126
1064 1 111 128
1065 1 112 190
1066 1 112 318
1067 1 113 126
1068 1 113 127
1069 1 114 127
1070 1 114 129
1071 1 115 319
1072 1 116 128
1073 1 116 132
1074 1 117 128
1075 1 117 129
1076 1 118 128
1077 1 119 129
1078 1 119 189
1079 1 120 129
1080 1 121 130
1081 1 121 132
1082 1 122 130
1083 1 122 131
1084 1 123 130
1085 1 123 190
1086 1 124 131
1087 1 124 189
1088 1 125 131
1089 1 126 304
1090 1 126 371
1091 1 127 307
1092 1 127 372

Angles

1 1 614 599 616
2 1 422 600 764
3 1 614 601 615
4 1 615 602 617
5 1 423 603 730
6 1 616 604 620
7 1 616 605 617
8 1 617 607 763
9 1 617 608 707
10 1 618 609 620
11 1 618 610 619
12 1 618 611 764
13 1 619 612 763
14 1 619 613 730
15 2 408 614 599
16 2 408 614 601
17 2 408 614 755
18 2 599 614 601
19 2 599 614 755
20 2 601 614 755
21 2 411 615 601
22 2 411 615 602
23 2 411 615 756
24 2 601 615 602
25 2 601 615 756
26 2 602 615 756
27 2 599 616 604
28 2 599 616 605
29 2 599 616 606
30 2 604 616 605
31 2 604 616 606
32 2 605 616 606
33 2 602 617 605
34 2 602 617 607
35 2 602 617 608
36 2 605 617 607
37 2 605 617 608
38 2 607 617 608
39 2 609 618 610
40 2 609 618 611
41 2 609 618 694
42 2 610 618 611
43 2 610 618 694
44 2 611 618 694
45 2 610 619 612
46 2 610 619 613
47 2 610 619 696
48 2 612 619 613
49 2 612 619 696
50 2 613 619 696
51 2 604 620 609
52 2 604 620 713
53 2 604 620 723
54 2 609 620 713
55 2 609 620 723
56 2 713 620 723
57 1 660 650 728
58 1 724 709 726
59 1 340 710 764
60 1 724 711 725
61 1 725 712 727
62 1 341 713 620
63 1 726 714 730
64 1 726 715 727
65 1 662 716 726
66 1 727 717 763
67 1 663 718 727
68 1 728 719 730
69 1 728 720 729
70 1 728 721 764
71 1 729 722 763
72 1 620 723 729
73 2 326 724 375
74 2 326 724 709
75 2 326 724 711
76 2 375 724 709
77 2 375 724 711
78 2 709 724 711
79 2 329 725 376
80 2 329 725 711
81 2 329 725 712
82 2 376 725 711
83 2 376 725 712
84 2 711 725 712
85 2 709 726 714
86 2 709 726 715
87 2 709 726 716
88 2 714 726 715
89 2 714 726 716
90 2 715 726 716
91 2 712 727 715
92 2 712 727 717
93 2 712 727 718
94 2 715 727 717
95 2 715 727 718
96 2 717 727 718
97 2 650 728 719
98 2 650 728 720
99 2 650 728 721
100 2 719 728 720
101 2 719 728 721
102 2 720 728 721
103 2 652 729 720
104 2 652 729 722
105 2 652 729 723
106 2 720 729 722
107 2 720 729 723
108 2 722 729 723
109 2 603 730 613
110 2 603 730 714
111 2 603 730 719
112 2 613 730 714
113 2 613 730 719
114 2 714 730 719
115 1 340 759 658
116 1 341 760 659
117 2 607 763 612
118 2 607 763 717
119 2 607 763 722
120 2 612 763 717
121 2 612 763 722
122 2 717 763 722
123 2 600 764 611
124 2 600 764 710
125 2 600 764 721
126 2 611 764 710
127 2 611 764 721
128 2 710 764 721
129 16 811 815 816
130 26 811 815 813
131 29 813 815 816
132 12 808 811 812
133 15 808 811 815
134 19 812 811 815
135 11 803 808 811
136 20 803 808 806
137 28 806 808 811
138 1 488 561 592
139 1 489 562 593
140 1 594 584 684
141 1 658 643 660
142 1 274 644 768
143 1 658 645 659
144 1 659 646 661
145 1 275 647 686
146 1 660 648 664
147 1 660 649 661
148 1 661 651 767
149 1 661 652 729
150 1 662 653 664
151 1 662 654 663
152 1 662 655 768
153 1 663 656 767
154 1 663 657 686
155 2 260 658 643
156 2 260 658 645
157 2 260 658 759
158 2 643 658 645
159 2 643 658 759
160 2 645 658 759
161 2 263 659 645
162 2 263 659 646
163 2 263 659 760
164 2 645 659 646
165 2 645 659 760
166 2 646 659 760
167 2 643 660 648
168 2 643 660 649
169 2 643 660 650
170 2 648 660 649
171 2 648 660 650
172 2 649 660 650
173 2 646 661 649
174 2 646 661 651
175 2 646 661 652
176 2 649 661 651
177 2 649 661 652
178 2 651 661 652
179 2 653 662 654
180 2 653 662 655
181 2 653 662 716
182 2 654 662 655
183 2 654 662 716
184 2 655 662 716
185 2 654 663 656
186 2 654 663 657
187 2 654 663 718
188 2 656 663 657
189 2 656 663 718
190 2 657 663 718
191 2 648 664 653
192 2 648 664 669
193 2 648 664 679
194 2 653 664 669
195 2 653 664 679
196 2 669 664 679
197 1 680 665 682
198 1 488 666 768
199 1 680 667 681
200 1 681 668 683
201 1 489 669 664
202 1 682 670 686
203 1 682 671 683
204 1 596 672 682
205 1 683 673 767
206 1 597 674 683
207 1 684 675 686
208 1 684 676 685
209 1 684 677 768
210 1 685 678 767
211 1 664 679 685
212 2 474 680 665
213 2 474 680 667
214 2 474 680 753
215 2 665 680 667
216 2 665 680 753
217 2 667 680 753
218 2 477 681 667
219 2 477 681 668
220 2 477 681 754
221 2 667 681 668
222 2 667 681 754
223 2 668 681 754
224 2 665 682 670
225 2 665 682 671
226 2 665 682 672
227 2 670 682 671
228 2 670 682 672
229 2 671 682 672
230 2 668 683 671
231 2 668 683 673
232 2 668 683 674
233 2 671 683 673
234 2 671 683 674
235 2 673 683 674
236 2 584 684 675
237 2 584 684 676
238 2 584 684 677
239 2 675 684 676
240 2 675 684 677
241 2 676 684 677
242 2 586 685 676
243 2 586 685 678
244 2 586 685 679
245 2 676 685 678
246 2 676 685 679
247 2 678 685 679
248 2 647 686 657
249 2 647 686 670
250 2 647 686 675
251 2 657 686 670
252 2 657 686 675
253 2 670 686 675
254 2 651 767 656
255 2 651 767 673
256 2 651 767 678
257 2 656 767 673
258 2 656 767 678
259 2 673 767 678
260 2 644 768 655
261 2 644 768 666
262 2 644 768 677
263 2 655 768 666
264 2 655 768 677
265 2 666 768 677
266 1 592 577 594
267 1 400 578 762
268 1 592 579 593
269 1 593 580 595
270 1 401 581 752
271 1 594 582 598
272 1 594 583 595
273 1 595 585 761
274 1 595 586 685
275 1 596 587 598
276 1 596 588 597
277 1 596 589 762
278 1 597 590 761
279 1 597 591 752
280 2 386 592 561
281 2 386 592 577
282 2 386 592 579
283 2 561 592 577
284 2 561 592 579
285 2 577 592 579
286 2 389 593 562
287 2 389 593 579
288 2 389 593 580
289 2 562 593 579
290 2 562 593 580
291 2 579 593 580
292 2 577 594 582
293 2 577 594 583
294 2 577 594 584
295 2 582 594 583
296 2 582 594 584
297 2 583 594 584
298 2 580 595 583
299 2 580 595 585
300 2 580 595 586
301 2 583 595 585
302 2 583 595 586
303 2 585 595 586
304 2 587 596 588
305 2 587 596 589
306 2 587 596 672
307 2 588 596 589
308 2 588 596 672
309 2 589 596 672
310 2 588 597 590
311 2 588 597 591
312 2 588 597 674
313 2 590 597 591
314 2 590 597 674
315 2 591 597 674
316 2 582 598 587
317 2 582 598 735
318 2 582 598 745
319 2 587 598 735
320 2 587 598 745
321 2 735 598 745
322 1 638 628 750
323 1 746 731 748
324 1 362 732 762
325 1 746 733 747
326 1 747 734 749
327 1 363 735 598
328 1 748 736 752
329 1 748 737 749
330 1 640 738 748
331 1 749 739 761
332 1 641 740 749
333 1 750 741 752
334 1 750 742 751
335 1 750 743 762
336 1 751 744 761
337 1 598 745 751
338 2 348 746 731
339 2 348 746 733
340 2 348 746 757
341 2 731 746 733
342 2 731 746 757
343 2 733 746 757
344 2 351 747 733
345 2 351 747 734
346 2 351 747 758
347 2 733 747 734
348 2 733 747 758
349 2 734 747 758
350 2 731 748 736
351 2 731 748 737
352 2 731 748 738
353 2 736 748 737
354 2 736 748 738
355 2 737 748 738
356 2 734 749 737
357 2 734 749 739
358 2 734 749 740
359 2 737 749 739
360 2 737 749 740
361 2 739 749 740
362 2 628 750 741
363 2 628 750 742
364 2 628 750 743
365 2 741 750 742
366 2 741 750 743
367 2 742 750 743
368 2 630 751 742
369 2 630 751 744
370 2 630 751 745
371 2 742 751 744
372 2 742 751 745
373 2 744 751 745
374 2 581 752 591
375 2 581 752 736
376 2 581 752 741
377 2 591 752 736
378 2 591 752 741
379 2 736 752 741
380 1 252 757 746
381 1 253 758 747
382 2 585 761 590
383 2 585 761 739
384 2 585 761 744
385 2 590 761 739
386 2 590 761 744
387 2 739 761 744
388 2 578 762 589
389 2 578 762 732
390 2 578 762 743
391 2 589 762 732
392 2 589 762 743
393 2 732 762 743
394 1 422 563 702
395 1 423 564 703
396 1 616 606 706
397 1 636 621 638
398 1 252 622 766
399 1 636 623 637
400 1 637 624 639
401 1 253 625 708
402 1 638 626 642
403 1 638 627 639
404 1 639 629 765
405 1 639 630 751
406 1 640 631 642
407 1 640 632 641
408 1 640 633 766
409 1 641 634 765
410 1 641 635 708
411 2 238 636 373
412 2 238 636 621
413 2 238 636 623
414 2 373 636 621
415 2 373 636 623
416 2 621 636 623
417 2 241 637 374
418 2 241 637 623
419 2 241 637 624
420 2 374 637 623
421 2 374 637 624
422 2 623 637 624
423 2 621 638 626
424 2 621 638 627
425 2 621 638 628
426 2 626 638 627
427 2 626 638 628
428 2 627 638 628
429 2 624 639 627
430 2 624 639 629
431 2 624 639 630
432 2 627 639 629
433 2 627 639 630
434 2 629 639 630
435 2 631 640 632
436 2 631 640 633
437 2 631 640 738
438 2 632 640 633
439 2 632 640 738
440 2 633 640 738
441 2 632 641 634
442 2 632 641 635
443 2 632 641 740
444 2 634 641 635
445 2 634 641 740
446 2 635 641 740
447 2 626 642 631
448 2 626 642 691
449 2 626 642 701
450 2 631 642 691
451 2 631 642 701
452 2 691 642 701
453 1 702 687 704
454 1 510 688 766
455 1 702 689 703
456 1 703 690 705
457 1 511 691 642
458 1 704 692 708
459 1 704 693 705
460 1 618 694 704
461 1 705 695 765
462 1 619 696 705
463 1 706 697 708
464 1 706 698 707
465 1 706 699 766
466 1 707 700 765
467 1 642 701 707
468 2 496 702 563
469 2 496 702 687
470 2 496 702 689
471 2 563 702 687
472 2 563 702 689
473 2 687 702 689
474 2 499 703 564
475 2 499 703 689
476 2 499 703 690
477 2 564 703 689
478 2 564 703 690
479 2 689 703 690
480 2 687 704 692
481 2 687 704 693
482 2 687 704 694
483 2 692 704 693
484 2 692 704 694
485 2 693 704 694
486 2 690 705 693
487 2 690 705 695
488 2 690 705 696
489 2 693 705 695
490 2 693 705 696
491 2 695 705 696
492 2 606 706 697
493 2 606 706 698
494 2 606 706 699
495 2 697 706 698
496 2 697 706 699
497 2 698 706 699
498 2 608 707 698
499 2 608 707 700
500 2 608 707 701
501 2 698 707 700
502 2 698 707 701
503 2 700 707 701
504 2 625 708 635
505 2 625 708 692
506 2 625 708 697
507 2 635 708 692
508 2 635 708 697
509 2 692 708 697
510 2 629 765 634
511 2 629 765 695
512 2 629 765 700
513 2 634 765 695
514 2 634 765 700
515 2 695 765 700
516 2 622 766 633
517 2 622 766 688
518 2 622 766 699
519 2 633 766 688
520 2 633 766 699
521 2 688 766 699
522 10 803 809 810
523 13 803 809 813
524 18 810 809 813
525 14 809 813 814
526 21 814 813 815
527 24 809 813 815
528 8 802 803 808
529 9 802 803 809
530 22 808 803 809
531 1 230 215 232
532 1 38 216 380
533 1 230 217 231
534 1 231 218 233
535 1 39 219 346
536 1 232 220 236
537 1 232 221 233
538 1 233 223 379
539 1 233 224 323
540 1 234 225 236
541 1 234 226 235
542 1 234 227 380
543 1 235 228 379
544 1 235 229 346
545 2 24 230 215
546 2 24 230 217
547 2 24 230 371
548 2 215 230 217
549 2 215 230 371
550 2 217 230 371
551 2 27 231 217
552 2 27 231 218
553 2 27 231 372
554 2 217 231 218
555 2 217 231 372
556 2 218 231 372
557 2 215 232 220
558 2 215 232 221
559 2 215 232 222
560 2 220 232 221
561 2 220 232 222
562 2 221 232 222
563 2 218 233 221
564 2 218 233 223
565 2 218 233 224
566 2 221 233 223
567 2 221 233 224
568 2 223 233 224
569 2 225 234 226
570 2 225 234 227
571 2 225 234 310
572 2 226 234 227
573 2 226 234 310
574 2 227 234 310
575 2 226 235 228
576 2 226 235 229
577 2 226 235 312
578 2 228 235 229
579 2 228 235 312
580 2 229 235 312
581 2 220 236 225
582 2 220 236 329
583 2 220 236 339
584 2 225 236 329
585 2 225 236 339
586 2 329 236 339
587 1 276 266 344
588 1 340 325 342
589 1 380 326 724
590 1 340 327 341
591 1 341 328 343
592 1 236 329 725
593 1 342 330 346
594 1 342 331 343
595 1 278 332 342
596 1 343 333 379
597 1 279 334 343
598 1 344 335 346
599 1 344 336 345
600 1 344 337 380
601 1 345 338 379
602 1 236 339 345
603 2 325 340 327
604 2 325 340 710
605 2 325 340 759
606 2 327 340 710
607 2 327 340 759
608 2 710 340 759
609 2 327 341 328
610 2 327 341 713
611 2 327 341 760
612 2 328 341 713
613 2 328 341 760
614 2 713 341 760
615 2 325 342 330
616 2 325 342 331
617 2 325 342 332
618 2 330 342 331
619 2 330 342 332
620 2 331 342 332
621 2 328 343 331
622 2 328 343 333
623 2 328 343 334
624 2 331 343 333
625 2 331 343 334
626 2 333 343 334
627 2 266 344 335
628 2 266 344 336
629 2 266 344 337
630 2 335 344 336
631 2 335 344 337
632 2 336 344 337
633 2 268 345 336
634 2 268 345 338
635 2 268 345 339
636 2 336 345 338
637 2 336 345 339
638 2 338 345 339
639 2 219 346 229
640 2 219 346 330
641 2 219 346 335
642 2 229 346 330
643 2 229 346 335
644 2 330 346 335
645 1 274 375 724
646 1 275 376 725
647 2 223 379 228
648 2 223 379 333
649 2 223 379 338
650 2 228 379 333
651 2 228 379 338
652 2 333 379 338
653 2 216 380 227
654 2 216 380 326
655 2 216 380 337
656 2 227 380 326
657 2 227 380 337
658 2 326 380 337
659 14 825 829 830
660 21 830 829 831
661 24 825 829 831
662 10 819 825 826
663 13 819 825 829
664 18 826 825 829
665 8 818 819 824
666 9 818 819 825
667 22 824 819 825
668 3 817 818 819
669 4 817 818 820
670 23 819 818 820
671 1 104 177 208
672 1 105 178 209
673 1 210 200 300
674 1 274 259 276
675 1 384 260 658
676 1 274 261 275
677 1 275 262 277
678 1 302 263 659
679 1 276 264 280
680 1 276 265 277
681 1 277 267 383
682 1 277 268 345
683 1 278 269 280
684 1 278 270 279
685 1 278 271 384
686 1 279 272 383
687 1 279 273 302
688 2 259 274 261
689 2 259 274 375
690 2 259 274 644
691 2 261 274 375
692 2 261 274 644
693 2 375 274 644
694 2 261 275 262
695 2 261 275 376
696 2 261 275 647
697 2 262 275 376
698 2 262 275 647
699 2 376 275 647
700 2 259 276 264
701 2 259 276 265
702 2 259 276 266
703 2 264 276 265
704 2 264 276 266
705 2 265 276 266
706 2 262 277 265
707 2 262 277 267
708 2 262 277 268
709 2 265 277 267
710 2 265 277 268
711 2 267 277 268
712 2 269 278 270
713 2 269 278 271
714 2 269 278 332
715 2 270 278 271
716 2 270 278 332
717 2 271 278 332
718 2 270 279 272
719 2 270 279 273
720 2 270 279 334
721 2 272 279 273
722 2 272 279 334
723 2 273 279 334
724 2 264 280 269
725 2 264 280 285
726 2 264 280 295
727 2 269 280 285
728 2 269 280 295
729 2 285 280 295
730 1 296 281 298
731 1 104 282 384
732 1 296 283 297
733 1 297 284 299
734 1 105 285 280
735 1 298 286 302
736 1 298 287 299
737 1 212 288 298
738 1 299 289 383
739 1 213 290 299
740 1 300 291 302
741 1 300 292 301
742 1 300 293 384
743 1 301 294 383
744 1 280 295 301
745 2 90 296 281
746 2 90 296 283
747 2 90 296 369
748 2 281 296 283
749 2 281 296 369
750 2 283 296 369
751 2 93 297 283
752 2 93 297 284
753 2 93 297 370
754 2 283 297 284
755 2 283 297 370
756 2 284 297 370
757 2 281 298 286
758 2 281 298 287
759 2 281 298 288
760 2 286 298 287
761 2 286 298 288
762 2 287 298 288
763 2 284 299 287
764 2 284 299 289
765 2 284 299 290
766 2 287 299 289
767 2 287 299 290
768 2 289 299 290
769 2 200 300 291
770 2 200 300 292
771 2 200 300 293
772 2 291 300 292
773 2 291 300 293
774 2 292 300 293
775 2 202 301 292
776 2 202 301 294
777 2 202 301 295
778 2 292 301 294
779 2 292 301 295
780 2 294 301 295
781 2 263 302 273
782 2 263 302 286
783 2 263 302 291
784 2 273 302 286
785 2 273 302 291
786 2 286 302 291
787 2 267 383 272
788 2 267 383 289
789 2 267 383 294
790 2 272 383 289
791 2 272 383 294
792 2 289 383 294
793 2 260 384 271
794 2 260 384 282
795 2 260 384 293
796 2 271 384 282
797 2 271 384 293
798 2 282 384 293
799 14 777 781 782
800 21 782 781 783
801 24 777 781 783
802 10 771 777 778
803 13 771 777 781
804 18 778 777 781
805 1 208 193 210
806 1 16 194 378
807 1 208 195 209
808 1 209 196 211
809 1 17 197 368
810 1 210 198 214
811 1 210 199 211
812 1 211 201 377
813 1 211 202 301
814 1 212 203 214
815 1 212 204 213
816 1 212 205 378
817 1 213 206 377
818 1 213 207 368
819 2 2 208 177
820 2 2 208 193
821 2 2 208 195
822 2 177 208 193
823 2 177 208 195
824 2 193 208 195
825 2 5 209 178
826 2 5 209 195
827 2 5 209 196
828 2 178 209 195
829 2 178 209 196
830 2 195 209 196
831 2 193 210 198
832 2 193 210 199
833 2 193 210 200
834 2 198 210 199
835 2 198 210 200
836 2 199 210 200
837 2 196 211 199
838 2 196 211 201
839 2 196 211 202
840 2 199 211 201
841 2 199 211 202
842 2 201 211 202
843 2 203 212 204
844 2 203 212 205
845 2 203 212 288
846 2 204 212 205
847 2 204 212 288
848 2 205 212 288
849 2 204 213 206
850 2 204 213 207
851 2 204 213 290
852 2 206 213 207
853 2 206 213 290
854 2 207 213 290
855 2 198 214 203
856 2 198 214 351
857 2 198 214 361
858 2 203 214 351
859 2 203 214 361
860 2 351 214 361
861 1 254 244 366
862 1 362 347 364
863 1 378 348 746
864 1 362 349 363
865 1 363 350 365
866 1 214 351 747
867 1 364 352 368
868 1 364 353 365
869 1 256 354 364
870 1 365 355 377
871 1 257 356 365
872 1 366 357 368
873 1 366 358 367
874 1 366 359 378
875 1 367 360 377
876 1 214 361 367
877 2 347 362 349
878 2 347 362 373
879 2 347 362 732
880 2 349 362 373
881 2 349 362 732
882 2 373 362 732
883 2 349 363 350
884 2 349 363 374
885 2 349 363 735
886 2 350 363 374
887 2 350 363 735
888 2 374 363 735
889 2 347 364 352
890 2 347 364 353
891 2 347 364 354
892 2 352 364 353
893 2 352 364 354
894 2 353 364 354
895 2 350 365 353
896 2 350 365 355
897 2 350 365 356
898 2 353 365 355
899 2 353 365 356
900 2 355 365 356
901 2 244 366 357
902 2 244 366 358
903 2 244 366 359
904 2 357 366 358
905 2 357 366 359
906 2 358 366 359
907 2 246 367 358
908 2 246 367 360
909 2 246 367 361
910 2 358 367 360
911 2 358 367 361
912 2 360 367 361
913 2 197 368 207
914 2 197 368 352
915 2 197 368 357
916 2 207 368 352
917 2 207 368 357
918 2 352 368 357
919 1 362 373 636
920 1 363 374 637
921 2 201 377 206
922 2 201 377 355
923 2 201 377 360
924 2 206 377 355
925 2 206 377 360
926 2 355 377 360
927 2 194 378 205
928 2 194 378 348
929 2 194 378 359
930 2 205 378 348
931 2 205 378 359
932 2 348 378 359
933 8 770 771 776
934 9 770 771 777
935 22 776 771 777
936 7 772 774 775
937 25 775 774 776
938 27 772 774 776
939 5 770 772 773
940 6 770 772 774
941 17 773 772 774
942 11 771 776 779
943 20 771 776 774
944 28 774 776 779
945 3 769 770 771
946 4 769 770 772
947 23 771 770 772
948 1 38 179 318
949 1 39 180 319
950 1 232 222 322
951 1 252 237 254
952 1 382 238 636
953 1 252 239 253
954 1 253 240 255
955 1 324 241 637
956 1 254 242 258
957 1 254 243 255
958 1 255 245 381
959 1 255 246 367
960 1 256 247 258
961 1 256 248 257
962 1 256 249 382
963 1 257 250 381
964 1 257 251 324
965 2 237 252 239
966 2 237 252 622
967 2 237 252 757
968 2 239 252 622
969 2 239 252 757
970 2 622 252 757
971 2 239 253 240
972 2 239 253 625
973 2 239 253 758
974 2 240 253 625
975 2 240 253 758
976 2 625 253 758
977 2 237 254 242
978 2 237 254 243
979 2 237 254 244
980 2 242 254 243
981 2 242 254 244
982 2 243 254 244
983 2 240 255 243
984 2 240 255 245
985 2 240 255 246
986 2 243 255 245
987 2 243 255 246
988 2 245 255 246
989 2 247 256 248
990 2 247 256 249
991 2 247 256 354
992 2 248 256 249
993 2 248 256 354
994 2 249 256 354
995 2 248 257 250
996 2 248 257 251
997 2 248 257 356
998 2 250 257 251
999 2 250 257 356
1000 2 251 257 356
1001 2 242 258 247
1002 2 242 258 307
1003 2 242 258 317
1004 2 247 258 307
1005 2 247 258 317
1006 2 307 258 317
1007 1 318 303 320
1008 1 126 304 382
1009 1 318 305 319
1010 1 319 306 321
1011 1 127 307 258
1012 1 320 308 324
1013 1 320 309 321
1014 1 234 310 320
1015 1 321 311 381
1016 1 235 312 321
1017 1 322 313 324
1018 1 322 314 323
1019 1 322 315 382
1020 1 323 316 381
1021 1 258 317 323
1022 2 112 318 179
1023 2 112 318 303
1024 2 112 318 305
1025 2 179 318 303
1026 2 179 318 305
1027 2 303 318 305
1028 2 115 319 180
1029 2 115 319 305
1030 2 115 319 306
1031 2 180 319 305
1032 2 180 319 306
1033 2 305 319 306
1034 2 303 320 308
1035 2 303 320 309
1036 2 303 320 310
1037 2 308 320 309
1038 2 308 320 310
1039 2 309 320 310
1040 2 306 321 309
1041 2 306 321 311
1042 2 306 321 312
1043 2 309 321 311
1044 2 309 321 312
1045 2 311 321 312
1046 2 222 322 313
1047 2 222 322 314
1048 2 222 322 315
1049 2 313 322 314
1050 2 313 322 315
1051 2 314 322 315
1052 2 224 323 314
1053 2 224 323 316
1054 2 224 323 317
1055 2 314 323 316
1056 2 314 323 317
1057 2 316 323 317
1058 2 241 324 251
1059 2 241 324 308
1060 2 241 324 313
1061 2 251 324 308
1062 2 251 324 313
1063 2 308 324 313
1064 2 245 381 250
1065 2 245 381 311
1066 2 245 381 316
1067 2 250 381 311
1068 2 250 381 316
1069 2 311 381 316
1070 2 238 382 249
1071 2 238 382 304
1072 2 238 382 315
1073 2 249 382 304
1074 2 249 382 315
1075 2 304 382 315
1076 12 824 827 828
1077 15 824 827 831
1078 19 828 827 831
1079 16 827 831 832
1080 26 827 831 829
1081 29 829 831 832
1082 11 819 824 827
1083 20 819 824 822
1084 28 822 824 827
1085 7 820 822 823
1086 25 823 822 824
1087 27 820 822 824
1088 5 818 820 821
1089 6 818 820 822
1090 17 821 820 822
1091 1 422 407 424
1092 1 572 408 614
1093 1 422 409 423
1094 1 423 410 425
1095 1 538 411 615
1096 1 424 412 428
1097 1 424 413 425
1098 1 425 415 571
1099 1 425 416 515
1100 1 426 417 428
1101 1 426 418 427
1102 1 426 419 572
1103 1 427 420 571
1104 1 427 421 538
1105 2 407 422 409
1106 2 407 422 563
1107 2 407 422 600
1108 2 409 422 563
1109 2 409 422 600
1110 2 563 422 600
1111 2 409 423 410
1112 2 409 423 564
1113 2 409 423 603
1114 2 410 423 564
1115 2 410 423 603
1116 2 564 423 603
1117 2 407 424 412
1118 2 407 424 413
1119 2 407 424 414
1120 2 412 424 413
1121 2 412 424 414
1122 2 413 424 414
1123 2 410 425 413
1124 2 410 425 415
1125 2 410 425 416
1126 2 413 425 415
1127 2 413 425 416
1128 2 415 425 416
1129 2 417 426 418
1130 2 417 426 419
1131 2 417 426 502
1132 2 418 426 419
1133 2 418 426 502
1134 2 419 426 502
1135 2 418 427 420
1136 2 418 427 421
1137 2 418 427 504
1138 2 420 427 421
1139 2 420 427 504
1140 2 421 427 504
1141 2 412 428 417
1142 2 412 428 521
1143 2 412 428 531
1144 2 417 428 521
1145 2 417 428 531
1146 2 521 428 531
1147 1 468 458 536
1148 1 532 517 534
1149 1 148 518 572
1150 1 532 519 533
1151 1 533 520 535
1152 1 149 521 428
1153 1 534 522 538
1154 1 534 523 535
1155 1 470 524 534
1156 1 535 525 571
1157 1 471 526 535
1158 1 536 527 538
1159 1 536 528 537
1160 1 536 529 572
1161 1 537 530 571
1162 1 428 531 537
1163 2 134 532 183
1164 2 134 532 517
1165 2 134 532 519
1166 2 183 532 517
1167 2 183 532 519
1168 2 517 532 519
1169 2 137 533 184
1170 2 137 533 519
1171 2 137 533 520
1172 2 184 533 519
1173 2 184 533 520
1174 2 519 533 520
1175 2 517 534 522
1176 2 517 534 523
1177 2 517 534 524
1178 2 522 534 523
1179 2 522 534 524
1180 2 523 534 524
1181 2 520 535 523
1182 2 520 535 525
1183 2 520 535 526
1184 2 523 535 525
1185 2 523 535 526
1186 2 525 535 526
1187 2 458 536 527
1188 2 458 536 528
1189 2 458 536 529
1190 2 527 536 528
1191 2 527 536 529
1192 2 528 536 529
1193 2 460 537 528
1194 2 460 537 530
1195 2 460 537 531
1196 2 528 537 530
1197 2 528 537 531
1198 2 530 537 531
1199 2 411 538 421
1200 2 411 538 522
1201 2 411 538 527
1202 2 421 538 522
1203 2 421 538 527
1204 2 522 538 527
1205 1 148 567 466
1206 1 149 568 467
1207 2 415 571 420
1208 2 415 571 525
1209 2 415 571 530
1210 2 420 571 525
1211 2 420 571 530
1212 2 525 571 530
1213 2 408 572 419
1214 2 408 572 518
1215 2 408 572 529
1216 2 419 572 518
1217 2 419 572 529
1218 2 518 572 529
1219 7 804 806 807
1220 25 807 806 808
1221 27 804 806 808
1222 5 802 804 805
1223 6 802 804 806
1224 17 805 804 806
1225 1 402 392 492
1226 1 466 451 468
1227 1 82 452 576
1228 1 466 453 467
1229 1 467 454 469
1230 1 83 455 494
1231 1 468 456 472
1232 1 468 457 469
1233 1 469 459 575
1234 1 469 460 537
1235 1 470 461 472
1236 1 470 462 471
1237 1 470 463 576
1238 1 471 464 575
1239 1 471 465 494
1240 2 68 466 451
1241 2 68 466 453
1242 2 68 466 567
1243 2 451 466 453
1244 2 451 466 567
1245 2 453 466 567
1246 2 71 467 453
1247 2 71 467 454
1248 2 71 467 568
1249 2 453 467 454
1250 2 453 467 568
1251 2 454 467 568
1252 2 451 468 456
1253 2 451 468 457
1254 2 451 468 458
1255 2 456 468 457
1256 2 456 468 458
1257 2 457 468 458
1258 2 454 469 457
1259 2 454 469 459
1260 2 454 469 460
1261 2 457 469 459
1262 2 457 469 460
1263 2 459 469 460
1264 2 461 470 462
1265 2 461 470 463
1266 2 461 470 524
1267 2 462 470 463
1268 2 462 470 524
1269 2 463 470 524
1270 2 462 471 464
1271 2 462 471 465
1272 2 462 471 526
1273 2 464 471 465
1274 2 464 471 526
1275 2 465 471 526
1276 2 456 472 461
1277 2 456 472 477
1278 2 456 472 487
1279 2 461 472 477
1280 2 461 472 487
1281 2 477 472 487
1282 1 488 473 490
1283 1 576 474 680
1284 1 488 475 489
1285 1 489 476 491
1286 1 472 477 681
1287 1 490 478 494
1288 1 490 479 491
1289 1 404 480 490
1290 1 491 481 575
1291 1 405 482 491
1292 1 492 483 494
1293 1 492 484 493
1294 1 492 485 576
1295 1 493 486 575
1296 1 472 487 493
1297 2 473 488 475
1298 2 473 488 561
1299 2 473 488 666
1300 2 475 488 561
1301 2 475 488 666
1302 2 561 488 666
1303 2 475 489 476
1304 2 475 489 562
1305 2 475 489 669
1306 2 476 489 562
1307 2 476 489 669
1308 2 562 489 669
1309 2 473 490 478
1310 2 473 490 479
1311 2 473 490 480
1312 2 478 490 479
1313 2 478 490 480
1314 2 479 490 480
1315 2 476 491 479
1316 2 476 491 481
1317 2 476 491 482
1318 2 479 491 481
1319 2 479 491 482
1320 2 481 491 482
1321 2 392 492 483
1322 2 392 492 484
1323 2 392 492 485
1324 2 483 492 484
1325 2 483 492 485
1326 2 484 492 485
1327 2 394 493 484
1328 2 394 493 486
1329 2 394 493 487
1330 2 484 493 486
1331 2 484 493 487
1332 2 486 493 487
1333 2 455 494 465
1334 2 455 494 478
1335 2 455 494 483
1336 2 465 494 478
1337 2 465 494 483
1338 2 478 494 483
1339 2 459 575 464
1340 2 459 575 481
1341 2 459 575 486
1342 2 464 575 481
1343 2 464 575 486
1344 2 481 575 486
1345 2 452 576 463
1346 2 452 576 474
1347 2 452 576 485
1348 2 463 576 474
1349 2 463 576 485
1350 2 474 576 485
1351 1 400 753 680
1352 1 401 754 681
1353 12 792 795 796
1354 15 792 795 799
1355 19 796 795 799
1356 16 795 799 800
1357 26 795 799 797
1358 29 797 799 800
1359 1 400 385 402
1360 1 570 386 592
1361 1 400 387 401
1362 1 401 388 403
1363 1 560 389 593
1364 1 402 390 406
1365 1 402 391 403
1366 1 403 393 569
1367 1 403 394 493
1368 1 404 395 406
1369 1 404 396 405
1370 1 404 397 570
1371 1 405 398 569
1372 1 405 399 560
1373 2 385 400 387
1374 2 385 400 578
1375 2 385 400 753
1376 2 387 400 578
1377 2 387 400 753
1378 2 578 400 753
1379 2 387 401 388
1380 2 387 401 581
1381 2 387 401 754
1382 2 388 401 581
1383 2 388 401 754
1384 2 581 401 754
1385 2 385 402 390
1386 2 385 402 391
1387 2 385 402 392
1388 2 390 402 391
1389 2 390 402 392
1390 2 391 402 392
1391 2 388 403 391
1392 2 388 403 393
1393 2 388 403 394
1394 2 391 403 393
1395 2 391 403 394
1396 2 393 403 394
1397 2 395 404 396
1398 2 395 404 397
1399 2 395 404 480
1400 2 396 404 397
1401 2 396 404 480
1402 2 397 404 480
1403 2 396 405 398
1404 2 396 405 399
1405 2 396 405 482
1406 2 398 405 399
1407 2 398 405 482
1408 2 399 405 482
1409 2 390 406 395
1410 2 390 406 543
1411 2 390 406 553
1412 2 395 406 543
1413 2 395 406 553
1414 2 543 406 553
1415 1 446 436 558
1416 1 554 539 556
1417 1 170 540 570
1418 1 554 541 555
1419 1 555 542 557
1420 1 171 543 406
1421 1 556 544 560
1422 1 556 545 557
1423 1 448 546 556
1424 1 557 547 569
1425 1 449 548 557
1426 1 558 549 560
1427 1 558 550 559
1428 1 558 551 570
1429 1 559 552 569
1430 1 406 553 559
1431 2 156 554 539
1432 2 156 554 541
1433 2 156 554 565
1434 2 539 554 541
1435 2 539 554 565
1436 2 541 554 565
1437 2 159 555 541
1438 2 159 555 542
1439 2 159 555 566
1440 2 541 555 542
1441 2 541 555 566
1442 2 542 555 566
1443 2 539 556 544
1444 2 539 556 545
1445 2 539 556 546
1446 2 544 556 545
1447 2 544 556 546
1448 2 545 556 546
1449 2 542 557 545
1450 2 542 557 547
1451 2 542 557 548
1452 2 545 557 547
1453 2 545 557 548
1454 2 547 557 548
1455 2 436 558 549
1456 2 436 558 550
1457 2 436 558 551
1458 2 549 558 550
1459 2 549 558 551
1460 2 550 558 551
1461 2 438 559 550
1462 2 438 559 552
1463 2 438 559 553
1464 2 550 559 552
1465 2 550 559 553
1466 2 552 559 553
1467 2 389 560 399
1468 2 389 560 544
1469 2 389 560 549
1470 2 399 560 544
1471 2 399 560 549
1472 2 544 560 549
1473 1 60 565 554
1474 1 61 566 555
1475 2 393 569 398
1476 2 393 569 547
1477 2 393 569 552
1478 2 398 569 547
1479 2 398 569 552
1480 2 547 569 552
1481 2 386 570 397
1482 2 386 570 540
1483 2 386 570 551
1484 2 397 570 540
1485 2 397 570 551
1486 2 540 570 551
1487 10 787 793 794
1488 13 787 793 797
1489 18 794 793 797
1490 7 788 790 791
1491 25 791 790 792
1492 27 788 790 792
1493 11 787 792 795
1494 20 787 792 790
1495 28 790 792 795
1496 8 786 787 792
1497 9 786 787 793
1498 22 792 787 793
1499 3 785 786 787
1500 4 785 786 788
1501 23 787 786 788
1502 5 786 788 789
1503 6 786 788 790
1504 17 789 788 790
1505 14 793 797 798
1506 21 798 797 799
1507 24 793 797 799
1508 1 424 414 514
1509 1 444 429 446
1510 1 60 430 574
1511 1 444 431 445
1512 1 445 432 447
1513 1 61 433 516
1514 1 446 434 450
1515 1 446 435 447
1516 1 447 437 573
1517 1 447 438 559
1518 1 448 439 450
1519 1 448 440 449
1520 1 448 441 574
1521 1 449 442 573
1522 1 449 443 516
1523 2 46 444 181
1524 2 46 444 429
1525 2 46 444 431
1526 2 181 444 429
1527 2 181 444 431
1528 2 429 444 431
1529 2 49 445 182
1530 2 49 445 431
1531 2 49 445 432
1532 2 182 445 431
1533 2 182 445 432
1534 2 431 445 432
1535 2 429 446 434
1536 2 429 446 435
1537 2 429 446 436
1538 2 434 446 435
1539 2 434 446 436
1540 2 435 446 436
1541 2 432 447 435
1542 2 432 447 437
1543 2 432 447 438
1544 2 435 447 437
1545 2 435 447 438
1546 2 437 447 438
1547 2 439 448 440
1548 2 439 448 441
1549 2 439 448 546
1550 2 440 448 441
1551 2 440 448 546
1552 2 441 448 546
1553 2 440 449 442
1554 2 440 449 443
1555 2 440 449 548
1556 2 442 449 443
1557 2 442 449 548
1558 2 443 449 548
1559 2 434 450 439
1560 2 434 450 499
1561 2 434 450 509
1562 2 439 450 499
1563 2 439 450 509
1564 2 499 450 509
1565 1 510 495 512
1566 1 574 496 702
1567 1 510 497 511
1568 1 511 498 513
1569 1 450 499 703
1570 1 512 500 516
1571 1 512 501 513
1572 1 426 502 512
1573 1 513 503 573
1574 1 427 504 513
1575 1 514 505 516
1576 1 514 506 515
1577 1 514 507 574
1578 1 515 508 573
1579 1 450 509 515
1580 2 495 510 497
1581 2 495 510 688
1582 2 495 510 755
1583 2 497 510 688
1584 2 497 510 755
1585 2 688 510 755
1586 2 497 511 498
1587 2 497 511 691
1588 2 497 511 756
1589 2 498 511 691
1590 2 498 511 756
1591 2 691 511 756
1592 2 495 512 500
1593 2 495 512 501
1594 2 495 512 502
1595 2 500 512 501
1596 2 500 512 502
1597 2 501 512 502
1598 2 498 513 501
1599 2 498 513 503
1600 2 498 513 504
1601 2 501 513 503
1602 2 501 513 504
1603 2 503 513 504
1604 2 414 514 505
1605 2 414 514 506
1606 2 414 514 507
1607 2 505 514 506
1608 2 505 514 507
1609 2 506 514 507
1610 2 416 515 506
1611 2 416 515 508
1612 2 416 515 509
1613 2 506 515 508
1614 2 506 515 509
1615 2 508 515 509
1616 2 433 516 443
1617 2 433 516 500
1618 2 433 516 505
1619 2 443 516 500
1620 2 443 516 505
1621 2 500 516 505
1622 2 437 573 442
1623 2 437 573 503
1624 2 437 573 508
1625 2 442 573 503
1626 2 442 573 508
1627 2 503 573 508
1628 2 430 574 441
1629 2 430 574 496
1630 2 430 574 507
1631 2 441 574 496
1632 2 441 574 507
1633 2 496 574 507
1634 1 510 755 614
1635 1 511 756 615
1636 3 801 802 803
1637 4 801 802 804
1638 23 803 802 804
1639 1 38 23 40
1640 1 188 24 230
1641 1 38 25 39
1642 1 39 26 41
1643 1 154 27 231
1644 1 40 28 44
1645 1 40 29 41
1646 1 41 31 187
1647 1 41 32 131
1648 1 42 33 44
1649 1 42 34 43
1650 1 42 35 188
1651 1 43 36 187
1652 1 43 37 154
1653 2 23 38 25
1654 2 23 38 179
1655 2 23 38 216
1656 2 25 38 179
1657 2 25 38 216
1658 2 179 38 216
1659 2 25 39 26
1660 2 25 39 180
1661 2 25 39 219
1662 2 26 39 180
1663 2 26 39 219
1664 2 180 39 219
1665 2 23 40 28
1666 2 23 40 29
1667 2 23 40 30
1668 2 28 40 29
1669 2 28 40 30
1670 2 29 40 30
1671 2 26 41 29
1672 2 26 41 31
1673 2 26 41 32
1674 2 29 41 31
1675 2 29 41 32
1676 2 31 41 32
1677 2 33 42 34
1678 2 33 42 35
1679 2 33 42 118
1680 2 34 42 35
1681 2 34 42 118
1682 2 35 42 118
1683 2 34 43 36
1684 2 34 43 37
1685 2 34 43 120
1686 2 36 43 37
1687 2 36 43 120
1688 2 37 43 120
1689 2 28 44 33
1690 2 28 44 137
1691 2 28 44 147
1692 2 33 44 137
1693 2 33 44 147
1694 2 137 44 147
1695 1 84 74 152
1696 1 148 133 150
1697 1 188 134 532
1698 1 148 135 149
1699 1 149 136 151
1700 1 44 137 533
1701 1 150 138 154
1702 1 150 139 151
1703 1 86 140 150
1704 1 151 141 187
1705 1 87 142 151
1706 1 152 143 154
1707 1 152 144 153
1708 1 152 145 188
1709 1 153 146 187
1710 1 44 147 153
1711 2 133 148 135
1712 2 133 148 518
1713 2 133 148 567
1714 2 135 148 518
1715 2 135 148 567
1716 2 518 148 567
1717 2 135 149 136
1718 2 135 149 521
1719 2 135 149 568
1720 2 136 149 521
1721 2 136 149 568
1722 2 521 149 568
1723 2 133 150 138
1724 2 133 150 139
1725 2 133 150 140
1726 2 138 150 139
1727 2 138 150 140
1728 2 139 150 140
1729 2 136 151 139
1730 2 136 151 141
1731 2 136 151 142
1732 2 139 151 141
1733 2 139 151 142
1734 2 141 151 142
1735 2 74 152 143
1736 2 74 152 144
1737 2 74 152 145
1738 2 143 152 144
1739 2 143 152 145
1740 2 144 152 145
1741 2 76 153 144
1742 2 76 153 146
1743 2 76 153 147
1744 2 144 153 146
1745 2 144 153 147
1746 2 146 153 147
1747 2 27 154 37
1748 2 27 154 138
1749 2 27 154 143
1750 2 37 154 138
1751 2 37 154 143
1752 2 138 154 143
1753 1 82 183 532
1754 1 83 184 533
1755 2 31 187 36
1756 2 31 187 141
1757 2 31 187 146
1758 2 36 187 141
1759 2 36 187 146
1760 2 141 187 146
1761 2 24 188 35
1762 2 24 188 134
1763 2 24 188 145
1764 2 35 188 134
1765 2 35 188 145
1766 2 134 188 145
1767 1 18 8 108
1768 1 82 67 84
1769 1 192 68 466
1770 1 82 69 83
1771 1 83 70 85
1772 1 110 71 467
1773 1 84 72 88
1774 1 84 73 85
1775 1 85 75 191
1776 1 85 76 153
1777 1 86 77 88
1778 1 86 78 87
1779 1 86 79 192
1780 1 87 80 191
1781 1 87 81 110
1782 2 67 82 69
1783 2 67 82 183
1784 2 67 82 452
1785 2 69 82 183
1786 2 69 82 452
1787 2 183 82 452
1788 2 69 83 70
1789 2 69 83 184
1790 2 69 83 455
1791 2 70 83 184
1792 2 70 83 455
1793 2 184 83 455
1794 2 67 84 72
1795 2 67 84 73
1796 2 67 84 74
1797 2 72 84 73
1798 2 72 84 74
1799 2 73 84 74
1800 2 70 85 73
1801 2 70 85 75
1802 2 70 85 76
1803 2 73 85 75
1804 2 73 85 76
1805 2 75 85 76
1806 2 77 86 78
1807 2 77 86 79
1808 2 77 86 140
1809 2 78 86 79
1810 2 78 86 140
1811 2 79 86 140
1812 2 78 87 80
1813 2 78 87 81
1814 2 78 87 142
1815 2 80 87 81
1816 2 80 87 142
1817 2 81 87 142
1818 2 72 88 77
1819 2 72 88 93
1820 2 72 88 103
1821 2 77 88 93
1822 2 77 88 103
1823 2 93 88 103
1824 1 104 89 106
1825 1 192 90 296
1826 1 104 91 105
1827 1 105 92 107
1828 1 88 93 297
1829 1 106 94 110
1830 1 106 95 107
1831 1 20 96 106
1832 1 107 97 191
1833 1 21 98 107
1834 1 108 99 110
1835 1 108 100 109
1836 1 108 101 192
1837 1 109 102 191
1838 1 88 103 109
1839 2 89 104 91
1840 2 89 104 177
1841 2 89 104 282
1842 2 91 104 177
1843 2 91 104 282
1844 2 177 104 282
1845 2 91 105 92
1846 2 91 105 178
1847 2 91 105 285
1848 2 92 105 178
1849 2 92 105 285
1850 2 178 105 285
1851 2 89 106 94
1852 2 89 106 95
1853 2 89 106 96
1854 2 94 106 95
1855 2 94 106 96
1856 2 95 106 96
1857 2 92 107 95
1858 2 92 107 97
1859 2 92 107 98
1860 2 95 107 97
1861 2 95 107 98
1862 2 97 107 98
1863 2 8 108 99
1864 2 8 108 100
1865 2 8 108 101
1866 2 99 108 100
1867 2 99 108 101
1868 2 100 108 101
1869 2 10 109 100
1870 2 10 109 102
1871 2 10 109 103
1872 2 100 109 102
1873 2 100 109 103
1874 2 102 109 103
1875 2 71 110 81
1876 2 71 110 94
1877 2 71 110 99
1878 2 81 110 94
1879 2 81 110 99
1880 2 94 110 99
1881 2 75 191 80
1882 2 75 191 97
1883 2 75 191 102
1884 2 80 191 97
1885 2 80 191 102
1886 2 97 191 102
1887 2 68 192 79
1888 2 68 192 90
1889 2 68 192 101
1890 2 79 192 90
1891 2 79 192 101
1892 2 90 192 101
1893 1 16 369 296
1894 1 17 370 297
1895 1 16 1 18
1896 1 186 2 208
1897 1 16 3 17
1898 1 17 4 19
1899 1 176 5 209
1900 1 18 6 22
1901 1 18 7 19
1902 1 19 9 185
1903 1 19 10 109
1904 1 20 11 22
1905 1 20 12 21
1906 1 20 13 186
1907 1 21 14 185
1908 1 21 15 176
1909 2 1 16 3
1910 2 1 16 194
1911 2 1 16 369
1912 2 3 16 194
1913 2 3 16 369
1914 2 194 16 369
1915 2 3 17 4
1916 2 3 17 197
1917 2 3 17 370
1918 2 4 17 197
1919 2 4 17 370
1920 2 197 17 370
1921 2 1 18 6
1922 2 1 18 7
1923 2 1 18 8
1924 2 6 18 7
1925 2 6 18 8
1926 2 7 18 8
1927 2 4 19 7
1928 2 4 19 9
1929 2 4 19 10
1930 2 7 19 9
1931 2 7 19 10
1932 2 9 19 10
1933 2 11 20 12
1934 2 11 20 13
1935 2 11 20 96
1936 2 12 20 13
1937 2 12 20 96
1938 2 13 20 96
1939 2 12 21 14
1940 2 12 21 15
1941 2 12 21 98
1942 2 14 21 15
1943 2 14 21 98
1944 2 15 21 98
1945 2 6 22 11
1946 2 6 22 159
1947 2 6 22 169
1948 2 11 22 159
1949 2 11 22 169
1950 2 159 22 169
1951 1 62 52 174
1952 1 170 155 172
1953 1 186 156 554
1954 1 170 157 171
1955 1 171 158 173
1956 1 22 159 555
1957 1 172 160 176
1958 1 172 161 173
1959 1 64 162 172
1960 1 173 163 185
1961 1 65 164 173
1962 1 174 165 176
1963 1 174 166 175
1964 1 174 167 186
1965 1 175 168 185
1966 1 22 169 175
1967 2 155 170 157
1968 2 155 170 181
1969 2 155 170 540
1970 2 157 170 181
1971 2 157 170 540
1972 2 181 170 540
1973 2 157 171 158
1974 2 157 171 182
1975 2 157 171 543
1976 2 158 171 182
1977 2 158 171 543
1978 2 182 171 543
1979 2 155 172 160
1980 2 155 172 161
1981 2 155 172 162
1982 2 160 172 161
1983 2 160 172 162
1984 2 161 172 162
1985 2 158 173 161
1986 2 158 173 163
1987 2 158 173 164
1988 2 161 173 163
1989 2 161 173 164
1990 2 163 173 164
1991 2 52 174 165
1992 2 52 174 166
1993 2 52 174 167
1994 2 165 174 166
1995 2 165 174 167
1996 2 166 174 167
1997 2 54 175 166
1998 2 54 175 168
1999 2 54 175 169
2000 2 166 175 168
2001 2 166 175 169
2002 2 168 175 169
2003 2 5 176 15
2004 2 5 176 160
2005 2 5 176 165
2006 2 15 176 160
2007 2 15 176 165
2008 2 160 176 165
2009 1 170 181 444
2010 1 171 182 445
2011 2 9 185 14
2012 2 9 185 163
2013 2 9 185 168
2014 2 14 185 163
2015 2 14 185 168
2016 2 163 185 168
2017 2 2 186 13
2018 2 2 186 156
2019 2 2 186 167
2020 2 13 186 156
2021 2 13 186 167
2022 2 156 186 167
2023 12 776 779 780
2024 15 776 779 783
2025 19 780 779 783
2026 16 779 783 784
2027 26 779 783 781
2028 29 781 783 784
2029 1 40 30 130
2030 1 60 45 62
2031 1 190 46 444
2032 1 60 47 61
2033 1 61 48 63
2034 1 132 49 445
2035 1 62 50 66
2036 1 62 51 63
2037 1 63 53 189
2038 1 63 54 175
2039 1 64 55 66
2040 1 64 56 65
2041 1 64 57 190
2042 1 65 58 189
2043 1 65 59 132
2044 2 45 60 47
2045 2 45 60 430
2046 2 45 60 565
2047 2 47 60 430
2048 2 47 60 565
2049 2 430 60 565
2050 2 47 61 48
2051 2 47 61 433
2052 2 47 61 566
2053 2 48 61 433
2054 2 48 61 566
2055 2 433 61 566
2056 2 45 62 50
2057 2 45 62 51
2058 2 45 62 52
2059 2 50 62 51
2060 2 50 62 52
2061 2 51 62 52
2062 2 48 63 51
2063 2 48 63 53
2064 2 48 63 54
2065 2 51 63 53
2066 2 51 63 54
2067 2 53 63 54
2068 2 55 64 56
2069 2 55 64 57
2070 2 55 64 162
2071 2 56 64 57
2072 2 56 64 162
2073 2 57 64 162
2074 2 56 65 58
2075 2 56 65 59
2076 2 56 65 164
2077 2 58 65 59
2078 2 58 65 164
2079 2 59 65 164
2080 2 50 66 55
2081 2 50 66 115
2082 2 50 66 125
2083 2 55 66 115
2084 2 55 66 125
2085 2 115 66 125
2086 1 126 111 128
2087 1 190 112 318
2088 1 126 113 127
2089 1 127 114 129
2090 1 66 115 319
2091 1 128 116 132
2092 1 128 117 129
2093 1 42 118 128
2094 1 129 119 189
2095 1 43 120 129
2096 1 130 121 132
2097 1 130 122 131
2098 1 130 123 190
2099 1 131 124 189
2100 1 66 125 131
2101 2 111 126 113
2102 2 111 126 304
2103 2 111 126 371
2104 2 113 126 304
2105 2 113 126 371
2106 2 304 126 371
2107 2 113 127 114
2108 2 113 127 307
2109 2 113 127 372
2110 2 114 127 307
2111 2 114 127 372
2112 2 307 127 372
2113 2 111 128 116
2114 2 111 128 117
2115 2 111 128 118
2116 2 116 128 117
2117 2 116 128 118
2118 2 117 128 118
2119 2 114 129 117
2120 2 114 129 119
2121 2 114 129 120
2122 2 117 129 119
2123 2 117 129 120
2124 2 119 129 120
2125 2 30 130 121
2126 2 30 130 122
2127 2 30 130 123
2128 2 121 130 122
2129 2 121 130 123
2130 2 122 130 123
2131 2 32 131 122
2132 2 32 131 124
2133 2 32 131 125
2134 2 122 131 124
2135 2 122 131 125
2136 2 124 131 125
2137 2 49 132 59
2138 2 49 132 116
2139 2 49 132 121
2140 2 59 132 116
2141 2 59 132 121
2142 2 116 132 121
2143 2 53 189 58
2144 2 53 189 119
2145 2 53 189 124
2146 2 58 189 119
2147 2 58 189 124
2148 2 119 189 124
2149 2 46 190 57
2150 2 46 190 112
2151 2 46 190 123
2152 2 57 190 112
2153 2 57 190 123
2154 2 112 190 123
2155 1 126 371 230
2156 1 127 372 231

Dihedrals

1 11 811 815 813 809
2 16 813 815 811 812
3 21 816 815 811 808
4 22 816 815 813 814
5 23 816 815 811 812
6 30 813 815 811 808
7 37 816 815 813 809
8 5 812 811 808 803
9 9 815 811 808 806
10 18 812 811 808 806
11 20 815 811 808 803
12 15 811 808 803 809
13 24 811 808 806 804
14 33 811 808 803 802
15 35 811 808 806 807
16 40 806 808 803 802
17 4 810 809 803 802
18 7 813 809 803 802
19 13 810 809 803 808
20 38 813 809 803 808
21 6 814 813 809 803
22 10 814 813 809 810
23 25 814 813 815 811
24 27 815 813 809 803
25 28 815 813 809 810
26 3 808 803 802 801
27 8 808 803 802 804
28 14 809 803 802 801
29 19 809 803 802 804
30 32 809 803 808 806
31 6 830 829 825 819
32 10 830 829 825 826
33 25 830 829 831 827
34 27 831 829 825 819
35 28 831 829 825 826
36 4 826 825 819 818
37 7 829 825 819 818
38 13 826 825 819 824
39 38 829 825 819 824
40 3 824 819 818 817
41 8 824 819 818 820
42 14 825 819 818 817
43 19 825 819 818 820
44 32 825 819 824 822
45 6 782 781 777 771
46 10 782 781 777 778
47 25 782 781 783 779
48 27 783 781 777 771
49 28 783 781 777 778
50 4 778 777 771 770
51 7 781 777 771 770
52 13 778 777 771 776
53 38 781 777 771 776
54 3 776 771 770 769
55 8 776 771 770 772
56 14 777 771 770 769
57 19 777 771 770 772
58 32 777 771 776 774
59 2 775 774 772 770
60 17 776 774 772 773
61 31 772 774 776 771
62 34 776 774 772 770
63 36 775 774 776 771
64 39 775 774 772 773
65 1 773 772 770 769
66 12 773 772 770 771
67 26 774 772 770 769
68 29 774 772 770 771
69 15 779 776 771 777
70 24 779 776 774 772
71 33 779 776 771 770
72 35 779 776 774 775
73 40 774 776 771 770
74 5 828 827 824 819
75 9 831 827 824 822
76 18 828 827 824 822
77 20 831 827 824 819
78 11 827 831 829 825
79 16 829 831 827 828
80 21 832 831 827 824
81 22 832 831 829 830
82 23 832 831 827 828
83 30 829 831 827 824
84 37 832 831 829 825
85 15 827 824 819 825
86 24 827 824 822 820
87 33 827 824 819 818
88 35 827 824 822 823
89 40 822 824 819 818
90 2 823 822 820 818
91 17 824 822 820 821
92 31 820 822 824 819
93 34 824 822 820 818
94 36 823 822 824 819
95 39 823 822 820 821
96 1 821 820 818 817
97 12 821 820 818 819
98 26 822 820 818 817
99 29 822 820 818 819
100 2 807 806 804 802
101 17 808 806 804 805
102 31 804 806 808 803
103 34 808 806 804 802
104 36 807 806 808 803
105 39 807 806 804 805
106 1 805 804 802 801
107 12 805 804 802 803
108 26 806 804 802 801
109 29 806 804 802 803
110 5 796 795 792 787
111 9 799 795 792 790
112 18 796 795 792 790
113 20 799 795 792 787
114 11 795 799 797 793
115 16 797 799 795 796
116 21 800 799 795 792
117 22 800 799 797 798
118 23 800 799 795 796
119 30 797 799 795 792
120 37 800 799 797 793
121 4 794 793 787 786
122 7 797 793 787 786
123 13 794 793 787 792
124 38 797 793 787 792
125 2 791 790 788 786
126 17 792 790 788 789
127 31 788 790 792 787
128 34 792 790 788 786
129 36 791 790 792 787
130 39 791 790 788 789
131 15 795 792 787 793
132 24 795 792 790 788
133 33 795 792 787 786
134 35 795 792 790 791
135 40 790 792 787 786
136 3 792 787 786 785
137 8 792 787 786 788
138 14 793 787 786 785
139 19 793 787 786 788
140 32 793 787 792 790
141 1 789 788 786 785
142 12 789 788 786 787
143 26 790 788 786 785
144 29 790 788 786 787
145 6 798 797 793 787
146 10 798 797 793 794
147 25 798 797 799 795
148 27 799 797 793 787
149 28 799 797 793 794
150 5 780 779 776 771
151 9 783 779 776 774
152 18 780 779 776 774
153 20 783 779 776 771
154 11 779 783 781 777
155 16 781 783 779 780
156 21 784 783 779 776
157 22 784 783 781 782
158 23 784 783 779 780
159 30 781 783 779 776
160 37 784 783 781 777

Impropers

1 6 811 812 815 808
2 4 808 811 806 803
3 7 815 811 813 816
4 5 809 810 803 813
5 3 803 809 802 808
6 8 813 809 814 815
7 5 825 826 819 829
8 3 819 825 818 824
9 8 829 825 830 831
10 1 818 817 819 820
11 2 820 818 821 822
12 5 777 778 771 781
13 3 771 777 770 776
14 8 781 777 782 783
15 1 770 769 771 772
16 2 772 770 773 774
17 4 824 827 822 819
18 7 831 827 829 832
19 6 827 828 831 824
20 6 795 796 799 792
21 4 792 795 790 787
22 7 799 795 797 800
23 3 787 793 786 792
24 8 797 793 798 799
25 5 793 794 787 797
26 1 786 785 787 788
27 2 788 786 789 790
28 1 802 801 803 804
29 2 804 802 805 806
30 4 776 779 774 771
31 7 783 779 781 784
32 6 779 780 783 776
